generated by RamanPy, mode 21 displacement -0.01
1.0
   2.5690887290    1.4832640690    4.6081534370
  -2.5690887290    1.4832640690    4.6081534370
   0.0000000000   -2.9665281390    4.6081534370
 Li Nb O
 2 2 6
Cartesian
  -0.0012153599   -0.0008680799    9.9252730900
  -0.0012888799   -0.0007839899    3.0130362100
  -0.0017129799   -0.0007400299    0.0079789700
  -0.0013492099   -0.0012986399    6.9202098900
   1.5667583098   -0.1650470799    8.3273602003
  -0.9208615002   -1.2715068201    8.3341634697
  -0.6389557501    1.4358940500    8.3315343900
  -1.6454467500    0.2121618599    6.0279421199
   1.0072123098    1.3214795298    6.0297581498
   0.6403102900   -1.5269899503    6.0231250903
