generated by RamanPy, mode 65 displacement -0.01
1.0
  15.0000000000    0.0000000000    0.0000000000
   0.0000000000   15.0000000000    0.0000000000
   0.0000000000    0.0000000000   25.0000000000
 N C H
 4 18 12
Cartesian
   8.6387979500    8.0000195300    7.6040188800
  11.3643034300    8.0000310000    7.6024384200
   8.5686632400    7.9999884000   12.4104187700
  11.4276824800    7.9999946500   12.4088952400
   9.2730638400    8.0000087900   11.2728744900
  10.7277190800    7.9999529200   11.2692956000
   9.2757647400    8.0000094400    8.8341918800
  10.7232753100    7.9999897500    8.8302401600
   8.5874280100    7.9999891400   10.0256225500
  11.4128272900    7.9999921900   10.0191194200
   9.2772931200    7.9999468900   13.5649447100
  10.7211917500    7.9999964200   13.5658089600
   9.2940578600    8.0000150700    6.3774219700
  10.7078331800    7.9999865400    6.3790649600
   8.5884214200    8.0000048400   14.8060739700
  11.4119924500    7.9999941800   14.8090358200
   8.6035973000    7.9999854500    5.1611307000
  11.3961790900    8.0000035900    5.1644256400
   9.2909254100    7.9999888800   15.9914543500
  10.7108043000    8.0000227900   15.9957621200
   9.3009341500    7.9999963200    3.9493488400
  10.6969956800    7.9999916600    3.9543915300
   7.4959335700    7.9999742800   10.0422815700
  12.5041191800    8.0000301700   10.0394002700
   7.6241005500    8.0000248900    7.6012078700
  12.3767248100    8.0000355100    7.6013806400
   7.4978767400    8.0000198400   14.7820687800
  12.5022367800    7.9999653900   14.7821608600
   7.5116608700    7.9999930900    5.1707422600
  12.4883544100    8.0000193800    5.1707560200
   8.7537205600    7.9999924500   16.9426979500
  11.2455690600    7.9999919500   16.9446215700
   8.7507660900    8.0000027700    3.0110185600
  11.2501248300    8.0000114600    3.0032803100
