generated by RamanPy, mode 52 displacement 0.01
1.0
  15.0000000000    0.0000000000    0.0000000000
   0.0000000000   15.0000000000    0.0000000000
   0.0000000000    0.0000000000   25.0000000000
 N C H
 4 18 12
Cartesian
   8.6391788099    8.0000192800    7.6009980001
  11.3646753799    8.0000292100    7.6054810099
   8.5709748600    7.9999900200   12.4111990099
  11.4299921400    7.9999898400   12.4081273201
   9.2727833200    7.9999793100   11.2721956000
  10.7274459200    7.9999802800   11.2699763400
   9.2758805300    7.9999998100    8.8315750500
  10.7233706200    7.9999997800    8.8328528000
   8.5873250700    7.9999910200   10.0227693200
  11.4127079200    7.9999897900   10.0219559800
   9.2777018000    7.9999802600   13.5662164000
  10.7215916900    7.9999803000   13.5645419600
   9.2926646300    8.0000031500    6.3772075400
  10.7064459400    8.0000018700    6.3792893300
   8.5868080401    7.9999895400   14.8071644600
  11.4103686601    7.9999896100   14.8079389900
   8.6007801201    7.9999809400    5.1630352000
  11.3933641001    7.9999915800    5.1625184400
   9.2910874700    7.9999999100   15.9915626801
  10.7109662300    8.0000000500   15.9956502199
   9.3038826599    7.9999956300    3.9550403099
  10.6999450299    8.0000051600    3.9486893401
   7.4958861000    7.9999985800   10.0411798800
  12.5040675100    8.0000103100   10.0404790900
   7.6242108700    8.0000299200    7.6004069900
  12.3768324800    8.0000305400    7.6021978100
   7.4974089000    8.0000107200   14.7825080300
  12.5017658900    8.0000004400   14.7817145000
   7.5108671500    8.0000144700    5.1698486100
  12.4875613100    8.0000235700    5.1716462700
   8.7540425400    8.0000105200   16.9428875900
  11.2458932600    8.0000101500   16.9444297100
   8.7505720300    7.9999909000    3.0132600900
  11.2499311800    8.0000012300    3.0010357900
