generated by RamanPy, mode 56 displacement 0.01
1.0
  15.0000000000    0.0000000000    0.0000000000
   0.0000000000   15.0000000000    0.0000000000
   0.0000000000    0.0000000000   25.0000000000
 N C H
 4 18 12
Cartesian
   8.6372565600    8.0004782801    7.6032108200
  11.3627529200    8.0004907601    7.6032510100
   8.5704524500    8.0002870901   12.4096618200
  11.4294676500    8.0003002101   12.4096525700
   9.2726293300    7.9986886696   11.2710803600
  10.7272799800    7.9986477996   11.2710917900
   9.2762286000    7.9984610796    8.8322112500
  10.7237317100    7.9984429195    8.8322212700
   8.5872779300    8.0034719510   10.0223611200
  11.4126626500    8.0035079710   10.0223821900
   9.2780226700    8.0002590901   13.5653800900
  10.7219176400    8.0002566001   13.5653703200
   9.2931483000    8.0000884000    6.3782393200
  10.7069216400    8.0000977500    6.3782493000
   8.5882033000    7.9998853400   14.8075680700
  11.4117672200    7.9998764700   14.8075374800
   8.6037666000    8.0000067400    5.1627583000
  11.3963433300    8.0000057900    5.1627981800
   9.2900695500    7.9998670100   15.9936199400
  10.7099498600    7.9998591200   15.9935984400
   9.3020395800    7.9999285600    3.9518589800
  10.6981003700    7.9999349900    3.9518787200
   7.4958792800    7.9942760283   10.0408100500
  12.5040608700    7.9942354583   10.0408705700
   7.6236891200    7.9999344500    7.6012500400
  12.3763107100    7.9999339400    7.6013406600
   7.4978109800    8.0000378000   14.7821479400
  12.5021691900    8.0000459400   14.7820780600
   7.5117190200    7.9999986200    5.1707192800
  12.4884109700    8.0000247800    5.1707794000
   8.7540892300    8.0003649601   16.9436696300
  11.2459410300    8.0003756301   16.9436489700
   8.7503905400    8.0001093400    3.0121493100
  11.2497494400    8.0001287400    3.0021492300
