generated by RamanPy, mode 5 displacement 0.01
1.0
  15.0000000000    0.0000000000    0.0000000000
   0.0000000000   15.0000000000    0.0000000000
   0.0000000000    0.0000000000   25.0000000000
 N C H
 4 18 12
Cartesian
   8.6372598300    8.0000200200    7.6032099900
  11.3627499200    8.0000300000    7.6032500100
   8.5704454200    7.9999898800   12.4096646100
  11.4294652700    7.9999900000   12.4096454500
   9.2726346900    7.9999800100   11.2710879700
  10.7272843700    7.9999800500   11.2710818000
   9.2762304400    8.0000000500    8.8322102800
  10.7237302800    7.9999999900    8.8322198900
   8.5872747900    7.9999899900   10.0223590500
  11.4126506300    7.9999899900   10.0223806900
   9.2780414800    7.9999800000   13.5653108000
  10.7219413700    7.9999800300   13.5654389300
   9.2931498800    8.0000000000    6.3782398500
  10.7069197700    7.9999999900    6.3782501600
   8.5863642007    7.9999900900   14.8074926800
  11.4099406207    7.9999899600   14.8076163400
   8.6037739000    7.9999900000    5.1627598300
  11.3963435500    7.9999999900    5.1628002500
   9.2897121801    8.0000000100   15.9945010397
  10.7096032601    7.9999999600   15.9927383903
   9.3020449300    7.9999899900    3.9518693700
  10.6981058300    7.9999999800    3.9518691300
   7.4958946800    8.0000000100   10.0408108400
  12.5040888300    8.0000099700   10.0408693900
   7.6236901900    8.0000300200    7.6012501500
  12.3763100200    8.0000300000    7.6013396000
   7.5038658478    8.0000097800   14.7822523900
  12.5082073178    8.0000000800   14.7819780200
   7.5117075800    8.0000000000    5.1707201300
  12.4883989100    8.0000100400    5.1707799200
   8.7555636695    8.0000099900   16.9409827810
  11.2473778195    8.0000100200   16.9462740190
   8.7503717400    8.0000000000    3.0121188400
  11.2497289400    8.0000100100    3.0021862200
