generated by RamanPy, mode 20 displacement -0.01
1.0
   2.5690887290    1.4832640690    4.6081534370
  -2.5690887290    1.4832640690    4.6081534370
   0.0000000000   -2.9665281390    4.6081534370
 Li Nb O
 2 2 6
Cartesian
  -0.0008736801    0.0012160801    9.9252705100
  -0.0007830301    0.0012751501    3.0130355600
  -0.0007457301    0.0017168502    0.0079826300
  -0.0012915101    0.0013498801    6.9202142000
   1.5645985801   -0.1654392701    8.3294933499
  -0.9250570901   -1.2741222502    8.3286099698
  -0.6402007000    1.4326266297    8.3349471804
  -1.6421860597    0.2094120999    6.0231076897
   1.0077353102    1.3199897100    6.0297158202
   0.6410993901   -1.5314797501    6.0279919701
