generated by RamanPy, mode 6 displacement 0.01
1.0
   2.5690887290    1.4832640690    4.6081534370
  -2.5690887290    1.4832640690    4.6081534370
   0.0000000000   -2.9665281390    4.6081534370
 Li Nb O
 2 2 6
Cartesian
   0.0008767201    0.0000708300    9.9252698400
  -0.0008754001    0.0000498600    3.0130398400
   0.0002642800    0.0012417502    0.0079796700
  -0.0002930700    0.0012350102    6.9202097400
   1.5658888103   -0.1649395601    8.3323878802
  -0.9259679903   -1.2707575198    8.3328886402
  -0.6424997703    1.4326526596    8.3277842296
  -1.6430397197    0.2125008602    6.0288685902
   1.0032220597    1.3184077899    6.0282405002
   0.6424653303   -1.5338927404    6.0237118296
