
     Program PWSCF v.7.5 starts on 19Dec2025 at 17: 5:33 

     This program is part of the open-source Quantum ESPRESSO suite
     for quantum simulation of materials; please cite
         "P. Giannozzi et al., J. Phys.:Condens. Matter 21 395502 (2009);
         "P. Giannozzi et al., J. Phys.:Condens. Matter 29 465901 (2017);
         "P. Giannozzi et al., J. Chem. Phys. 152 154105 (2020);
          URL http://www.quantum-espresso.org", 
     in publications or presentations arising from this work. More details at
     http://www.quantum-espresso.org/quote

     Parallel version (MPI), running on    96 processors

     MPI processes distributed on     1 nodes
     352232 MiB available memory on the printing compute node when the environment starts
 
     Reading input from scf.in
Warning: card &CELL ignored

     Current dimensions of program PWSCF are:
     Max number of different atomic species (ntypx) = 10
     Max number of k-points (npk) =  40000
     Max angular momentum in pseudopotentials (lmaxx) =  4
 
     K-points division:     npool     =       3
     R & G space division:  proc/nbgrp/npool/nimage =      32
     Subspace diagonalization in iterative solution of the eigenvalue problem:
     a serial algorithm will be used

 
     Parallelization info
     --------------------
     sticks:   dense  smooth     PW     G-vecs:    dense   smooth      PW
     Min          87      87     25                 2997     2997     451
     Max          88      88     26                 3001     3001     454
     Sum        2813    2813    803                96001    96001   14483
 
     Using Slab Decomposition
 


     bravais-lattice index     =            0
     lattice parameter (alat)  =      10.3566  a.u.
     unit-cell volume          =     711.0045 (a.u.)^3
     number of atoms/cell      =           10
     number of atomic types    =            3
     number of electrons       =        68.00
     number of Kohn-Sham states=           60
     kinetic-energy cutoff     =     100.0000  Ry
     charge density cutoff     =     400.0000  Ry
     scf convergence threshold =      1.0E-10
     mixing beta               =       0.7000
     number of iterations used =            8  plain     mixing
     Exchange-correlation= PBESOL
                           (   1   4  10   8   0   0   0)

     celldm(1)=  10.356556  celldm(2)=   0.000000  celldm(3)=   0.000000
     celldm(4)=   0.000000  celldm(5)=   0.000000  celldm(6)=   0.000000

     crystal axes: (cart. coord. in units of alat)
               a(1) = (   0.468773   0.270646   0.840834 )  
               a(2) = (  -0.468773   0.270646   0.840834 )  
               a(3) = (   0.000000  -0.541292   0.840834 )  

     reciprocal axes: (cart. coord. in units 2 pi/alat)
               b(1) = (  1.066614  0.615810  0.396432 )  
               b(2) = ( -1.066614  0.615810  0.396432 )  
               b(3) = (  0.000000 -1.231620  0.396432 )  


     PseudoPot. # 1 for Li read from file:
     ./Li.upf
     MD5 check sum: dc9f6e608df41cc7e5665a263ba47fe0
     Pseudo is Norm-conserving, Zval =  3.0
     Generated using ONCVPSP code by D. R. Hamann
     Using radial grid of 1944 points,  4 beta functions with: 
                l(1) =   0
                l(2) =   0
                l(3) =   1
                l(4) =   1

     PseudoPot. # 2 for Nb read from file:
     ./Nb.upf
     MD5 check sum: f0922cae2acd95e7020481ef16123e2a
     Pseudo is Norm-conserving + core correction, Zval = 13.0
     Generated using ONCVPSP code by D. R. Hamann
     Using radial grid of 1660 points,  6 beta functions with: 
                l(1) =   0
                l(2) =   0
                l(3) =   1
                l(4) =   1
                l(5) =   2
                l(6) =   2

     PseudoPot. # 3 for O  read from file:
     ./O.upf
     MD5 check sum: f226cbcd508cec715ff87a8f75a1dfba
     Pseudo is Norm-conserving + core correction, Zval =  6.0
     Generated using ONCVPSP code by D. R. Hamann
     Using radial grid of  936 points,  5 beta functions with: 
                l(1) =   0
                l(2) =   0
                l(3) =   1
                l(4) =   1
                l(5) =   2

     atomic species   valence    mass     pseudopotential
     Li                3.00     6.94100     Li( 1.00)
     Nb               13.00    92.90600     Nb( 1.00)
     O                 6.00    16.00000     O ( 1.00)

     No symmetry found



   Cartesian axes

     site n.     atom                  positions (alat units)
         1        Li     tau(   1) = (  -0.0000001   0.0000001   1.8110009  )
         2        Li     tau(   2) = (  -0.0000001  -0.0000001   0.5498103  )
         3        Nb     tau(   3) = (   0.0000000  -0.0000000   0.0014235  )
         4        Nb     tau(   4) = (   0.0000000  -0.0000000   1.2627403  )
         5        O      tau(   5) = (   0.2852804  -0.0299163   1.5201596  )
         6        O      tau(   6) = (  -0.1685485  -0.2321019   1.5201596  )
         7        O      tau(   7) = (  -0.1167319   0.2620183   1.5201596  )
         8        O      tau(   8) = (  -0.3002188   0.0384147   1.0996902  )
         9        O      tau(   9) = (   0.1833775   0.2407897   1.0996901  )
        10        O      tau(  10) = (   0.1168412  -0.2792044   1.0996901  )

     number of k points=   216  Gaussian smearing, width (Ry)=  0.0200

     Number of k-points >= 100: set verbosity='high' to print them.

     Dense  grid:    96001 G-vectors     FFT dimensions: (  72,  72,  72)

     Estimated max dynamical RAM per process >      35.27 MB

     Estimated total dynamical RAM >       3.26 GB

     Initial potential from superposition of free atoms

     starting charge      67.9863, renormalised to      68.0000
     Starting wfcs are   48 randomized atomic wfcs +   12 random wfcs

     total cpu time spent up to now is        4.8 secs

     Self-consistent Calculation

     iteration #  1     ecut=   100.00 Ry     beta= 0.70
     Davidson diagonalization with overlap
     ethr =  1.00E-02,  avg # of iterations =  5.5

     total cpu time spent up to now is       56.7 secs

     total energy              =    -474.18517309 Ry
     estimated scf accuracy    <       4.37921153 Ry

     iteration #  2     ecut=   100.00 Ry     beta= 0.70
     Davidson diagonalization with overlap
     ethr =  6.44E-03,  avg # of iterations =  2.0

     total cpu time spent up to now is      156.5 secs

     total energy              =    -472.17951868 Ry
     estimated scf accuracy    <      20.54239864 Ry

     iteration #  3     ecut=   100.00 Ry     beta= 0.70
     Davidson diagonalization with overlap
     ethr =  6.44E-03,  avg # of iterations =  2.0

     total cpu time spent up to now is      250.2 secs

     total energy              =    -476.45160367 Ry
     estimated scf accuracy    <       0.57304766 Ry

     iteration #  4     ecut=   100.00 Ry     beta= 0.70
     Davidson diagonalization with overlap
     ethr =  8.43E-04,  avg # of iterations =  1.0

     total cpu time spent up to now is      293.2 secs

     total energy              =    -476.34696657 Ry
     estimated scf accuracy    <       0.25903981 Ry

     iteration #  5     ecut=   100.00 Ry     beta= 0.70
     Davidson diagonalization with overlap
     ethr =  3.81E-04,  avg # of iterations =  1.2

     total cpu time spent up to now is      303.7 secs

     total energy              =    -476.39844966 Ry
     estimated scf accuracy    <       0.00258443 Ry

     iteration #  6     ecut=   100.00 Ry     beta= 0.70
     Davidson diagonalization with overlap
     ethr =  3.80E-06,  avg # of iterations =  7.1

     total cpu time spent up to now is      336.4 secs

     total energy              =    -476.39886489 Ry
     estimated scf accuracy    <       0.00033502 Ry

     iteration #  7     ecut=   100.00 Ry     beta= 0.70
     Davidson diagonalization with overlap
     ethr =  4.93E-07,  avg # of iterations =  1.0

     total cpu time spent up to now is      363.6 secs

     total energy              =    -476.39887189 Ry
     estimated scf accuracy    <       0.00017182 Ry

     iteration #  8     ecut=   100.00 Ry     beta= 0.70
     Davidson diagonalization with overlap
     ethr =  2.53E-07,  avg # of iterations =  1.0

     total cpu time spent up to now is      416.0 secs

     total energy              =    -476.39889298 Ry
     estimated scf accuracy    <       0.00000632 Ry

     iteration #  9     ecut=   100.00 Ry     beta= 0.70
     Davidson diagonalization with overlap
     ethr =  9.29E-09,  avg # of iterations =  2.0

     total cpu time spent up to now is      512.2 secs

     total energy              =    -476.39889452 Ry
     estimated scf accuracy    <       0.00000085 Ry

     iteration # 10     ecut=   100.00 Ry     beta= 0.70
     Davidson diagonalization with overlap
     ethr =  1.25E-09,  avg # of iterations =  1.7

     total cpu time spent up to now is      579.3 secs

     total energy              =    -476.39889457 Ry
     estimated scf accuracy    <       0.00000045 Ry

     iteration # 11     ecut=   100.00 Ry     beta= 0.70
     Davidson diagonalization with overlap
     ethr =  6.57E-10,  avg # of iterations =  1.0

     total cpu time spent up to now is      587.7 secs

     total energy              =    -476.39889462 Ry
     estimated scf accuracy    <       0.00000002 Ry

     iteration # 12     ecut=   100.00 Ry     beta= 0.70
     Davidson diagonalization with overlap
     ethr =  3.01E-11,  avg # of iterations =  2.0

     total cpu time spent up to now is      595.9 secs

     total energy              =    -476.39889462 Ry
     estimated scf accuracy    <          3.3E-09 Ry

     iteration # 13     ecut=   100.00 Ry     beta= 0.70
     Davidson diagonalization with overlap
     ethr =  4.82E-12,  avg # of iterations =  1.0

     total cpu time spent up to now is      694.1 secs

     End of self-consistent calculation

     Number of k-points >= 100: set verbosity='high' to print the bands.

     the Fermi energy is     9.2370 ev

!    total energy              =    -476.39889462 Ry
     estimated scf accuracy    <          9.4E-11 Ry
     smearing contrib. (-TS)   =      -0.00000000 Ry
     internal energy E=F+TS    =    -476.39889462 Ry

     The total energy is F=E-TS. E is the sum of the following terms:
     one-electron contribution =    -142.20043572 Ry
     hartree contribution      =     103.98571391 Ry
     xc contribution           =    -108.02122176 Ry
     ewald contribution        =    -330.16295104 Ry

     convergence has been achieved in  13 iterations

     Writing all to output data dir out/pwscf.save/ :
     XML data file, charge density, pseudopotentials, collected wavefunctions
 
     init_run     :      2.32s CPU      2.45s WALL (       1 calls)
     electrons    :    685.55s CPU    689.34s WALL (       1 calls)

     Called by init_run:
     wfcinit      :      1.99s CPU      2.06s WALL (       1 calls)
     potinit      :      0.05s CPU      0.05s WALL (       1 calls)
     hinit0       :      0.26s CPU      0.30s WALL (       1 calls)

     Called by electrons:
     c_bands      :    517.26s CPU    520.10s WALL (      13 calls)
     sum_band     :    165.67s CPU    166.53s WALL (      13 calls)
     v_of_rho     :      0.56s CPU      0.57s WALL (      14 calls)
     mix_rho      :      0.09s CPU      0.09s WALL (      13 calls)

     Called by c_bands:
     init_us_2    :      0.70s CPU      0.72s WALL (    1944 calls)
     cegterg      :     84.06s CPU     84.97s WALL (     936 calls)

     Called by *egterg:
     cdiaghg      :     10.44s CPU     10.52s WALL (    2998 calls)
     h_psi        :     66.83s CPU     67.65s WALL (    3070 calls)
     g_psi        :      0.08s CPU      0.08s WALL (    2062 calls)

     Called by h_psi:
     h_psi:calbec :      3.28s CPU      3.34s WALL (    3070 calls)
     vloc_psi     :     62.25s CPU     62.99s WALL (    3070 calls)
                                        0.00s GPU  (    3070 calls)
     add_vuspsi   :      1.18s CPU      1.20s WALL (    3070 calls)

     General routines
     calbec       :      3.27s CPU      3.33s WALL (    3070 calls)
     fft          :      0.22s CPU      0.26s WALL (     140 calls)
     ffts         :      0.11s CPU      0.11s WALL (      13 calls)
     fftw         :     66.68s CPU     67.48s WALL (  316906 calls)
 
     Parallel routines
 
     PWSCF        :  11m30.84s CPU  11m36.71s WALL

 
   This run was terminated on:  17:17:10  19Dec2025            

=------------------------------------------------------------------------------=
   JOB DONE.
=------------------------------------------------------------------------------=
