6  -1 1.0e-02 
  0.997907911234823     
     2.5744747587826007    1.4863736950050308    4.6178143141981334
    -2.5744747587826007    1.4863736950050308    4.6178143141981334
    -0.0000000000000000   -2.9727473900100621    4.6178143141981334
   Li   Nb   O 
     2     2     6
Cartesian
  -0.0013291139   -0.0001073711    9.9252728598
   0.0013271069   -0.0000755812    3.0130427047
  -0.0001100604   -0.0005171073    0.0079803915
   0.0001220217   -0.0005142976    6.9202105466
   1.5616653263   -0.1626376599    8.3296476646
  -0.9215023388   -1.2740069571    8.3291451678
  -0.6375750828    1.4396995760    8.3342672716
  -1.6476689556    0.2092687925    6.0250082815
   1.0074024905    1.3205387464    6.0256385800
   0.6376096422   -1.5268130690    6.0301829269
