generated by RamanPy, mode 13 displacement -0.01
1.0
   2.5690887290    1.4832640690    4.6081534370
  -2.5690887290    1.4832640690    4.6081534370
   0.0000000000   -2.9665281390    4.6081534370
 Li Nb O
 2 2 6
Cartesian
  -0.0036853218   -0.0048620723    9.9252702000
   0.0000023200   -0.0060512729    3.0130485800
   0.0014263807   -0.0000430200    0.0079743100
  -0.0011609006    0.0008125604    6.9202099200
   1.5649841706   -0.1624786794    8.3315720803
  -0.9245412104   -1.2706265392    8.3294019692
  -0.6401817001    1.4359495899    8.3320896505
  -1.6446109696    0.2128976210    6.0258380295
   1.0046907897    1.3198850502    6.0264428298
   0.6414289107   -1.5303435400    6.0285435108
