generated by RamanPy, mode 55 displacement 0.01
1.0
  15.0000000000    0.0000000000    0.0000000000
   0.0000000000   15.0000000000    0.0000000000
   0.0000000000    0.0000000000   25.0000000000
 N C H
 4 18 12
Cartesian
   8.6372589300    8.0003644297    7.6032111300
  11.3627544900    7.9996909703    7.6032483200
   8.5704544800    8.0011580991   12.4096599900
  11.4294720800    7.9988256809   12.4096536900
   9.2726296000    7.9963708328   11.2710790800
  10.7272798800    8.0035722673   11.2710931200
   9.2762282700    7.9985151411    8.8322114800
  10.7237315400    8.0014671189    8.8322200300
   8.5872754700    8.0033667374   10.0223608300
  11.4126586000    7.9966557625   10.0223824200
   9.2780215000    7.9999231800   13.5653798500
  10.7219183300    8.0000401900   13.5653708200
   9.2931487100    8.0002259498    6.3782397100
  10.7069206200    7.9997748302    6.3782492200
   8.5882019000    7.9991908006   14.8075696300
  11.4117672900    8.0007869594   14.8075376400
   8.6037673100    7.9998112701    5.1627586500
  11.3963411200    8.0001791099    5.1627990800
   9.2900698900    7.9994684004   15.9936205100
  10.7099490100    8.0005310396   15.9935970500
   9.3020398300    7.9999502000    3.9518594200
  10.6981000400    8.0000386800    3.9518800500
   7.4958786500    7.9956766033   10.0408105500
  12.5040596800    8.0042677267   10.0408712100
   7.6236897400    7.9998921801    7.6012501800
  12.3763112000    8.0001672199    7.6013388900
   7.4978106200    8.0014037689   14.7821491400
  12.5021692200    7.9986076111   14.7820787700
   7.5117192500    8.0002280298    5.1707191200
  12.4884103400    7.9997818202    5.1707794700
   8.7540903700    8.0008351194   16.9436702800
  11.2459408600    7.9991875606   16.9436484700
   8.7503909600    8.0001113799    3.0121492400
  11.2497499300    7.9999008401    3.0021499300
