generated by RamanPy, mode 85 displacement 0.01
1.0
  15.0000000000    0.0000000000    0.0000000000
   0.0000000000   15.0000000000    0.0000000000
   0.0000000000    0.0000000000   25.0000000000
 N C H
 4 18 12
Cartesian
   8.6372597000    8.0010245198    7.6032118900
  11.3627486400    8.0010263398    7.6032504700
   8.5704503200    8.0035774292   12.4096616100
  11.4294718500    8.0035506092   12.4096512300
   9.2726305800    8.0017655096   11.2710833400
  10.7272805600    8.0017644496   11.2710922200
   9.2762296300    7.9975855306    8.8322131900
  10.7237301100    7.9975932906    8.8322220800
   8.5872803000    7.9982702704   10.0223641500
  11.4126607800    7.9982915504   10.0223822300
   9.2780216700    7.9986294203   13.5653784900
  10.7219210100    7.9986152203   13.5653696800
   9.2931486500    8.0002725499    6.3782396300
  10.7069190500    8.0002708099    6.3782491500
   8.5882012200    7.9964514008   14.8075656200
  11.4117706100    7.9964467708   14.8075387600
   8.6037691100    8.0001020600    5.1627583500
  11.3963391300    8.0001130700    5.1627983400
   9.2900696500    8.0018731696   15.9936157400
  10.7099494100    8.0018789896   15.9935974000
   9.3020392800    7.9998954100    3.9518577600
  10.6980994800    7.9999075500    3.9518776900
   7.4958801500    7.9994795701   10.0408118400
  12.5040602900    7.9994984901   10.0408708600
   7.6236898800    8.0013188797    7.6012504600
  12.3763096700    8.0013218097    7.6013400500
   7.4978104800    7.9984211104   14.7821479800
  12.5021701300    7.9984105804   14.7820796300
   7.5117197300    8.0000118400    5.1707191600
  12.4884097900    8.0000222900    5.1707793700
   8.7540897300    8.0013650197   16.9436686200
  11.2459395600    8.0013706497   16.9436493600
   8.7503898300    7.9998985000    3.0121493100
  11.2497500400    7.9999096100    3.0021493900
