
     Program PWSCF v.7.5 starts on 19Dec2025 at 17:40: 4 

     This program is part of the open-source Quantum ESPRESSO suite
     for quantum simulation of materials; please cite
         "P. Giannozzi et al., J. Phys.:Condens. Matter 21 395502 (2009);
         "P. Giannozzi et al., J. Phys.:Condens. Matter 29 465901 (2017);
         "P. Giannozzi et al., J. Chem. Phys. 152 154105 (2020);
          URL http://www.quantum-espresso.org", 
     in publications or presentations arising from this work. More details at
     http://www.quantum-espresso.org/quote

     Parallel version (MPI), running on    96 processors

     MPI processes distributed on     1 nodes
     354013 MiB available memory on the printing compute node when the environment starts
 
     Reading input from scf.in
Warning: card &CELL ignored

     Current dimensions of program PWSCF are:
     Max number of different atomic species (ntypx) = 10
     Max number of k-points (npk) =  40000
     Max angular momentum in pseudopotentials (lmaxx) =  4
 
     K-points division:     npool     =       3
     R & G space division:  proc/nbgrp/npool/nimage =      32
     Subspace diagonalization in iterative solution of the eigenvalue problem:
     a serial algorithm will be used

 
     Parallelization info
     --------------------
     sticks:   dense  smooth     PW     G-vecs:    dense   smooth      PW
     Min          87      87     25                 2997     2997     451
     Max          88      88     26                 3001     3001     454
     Sum        2813    2813    803                96001    96001   14483
 
     Using Slab Decomposition
 


     bravais-lattice index     =            0
     lattice parameter (alat)  =      10.3566  a.u.
     unit-cell volume          =     711.0045 (a.u.)^3
     number of atoms/cell      =           10
     number of atomic types    =            3
     number of electrons       =        68.00
     number of Kohn-Sham states=           60
     kinetic-energy cutoff     =     100.0000  Ry
     charge density cutoff     =     400.0000  Ry
     scf convergence threshold =      1.0E-10
     mixing beta               =       0.7000
     number of iterations used =            8  plain     mixing
     Exchange-correlation= PBESOL
                           (   1   4  10   8   0   0   0)

     celldm(1)=  10.356556  celldm(2)=   0.000000  celldm(3)=   0.000000
     celldm(4)=   0.000000  celldm(5)=   0.000000  celldm(6)=   0.000000

     crystal axes: (cart. coord. in units of alat)
               a(1) = (   0.468773   0.270646   0.840834 )  
               a(2) = (  -0.468773   0.270646   0.840834 )  
               a(3) = (   0.000000  -0.541292   0.840834 )  

     reciprocal axes: (cart. coord. in units 2 pi/alat)
               b(1) = (  1.066614  0.615810  0.396432 )  
               b(2) = ( -1.066614  0.615810  0.396432 )  
               b(3) = (  0.000000 -1.231620  0.396432 )  


     PseudoPot. # 1 for Li read from file:
     ./Li.upf
     MD5 check sum: dc9f6e608df41cc7e5665a263ba47fe0
     Pseudo is Norm-conserving, Zval =  3.0
     Generated using ONCVPSP code by D. R. Hamann
     Using radial grid of 1944 points,  4 beta functions with: 
                l(1) =   0
                l(2) =   0
                l(3) =   1
                l(4) =   1

     PseudoPot. # 2 for Nb read from file:
     ./Nb.upf
     MD5 check sum: f0922cae2acd95e7020481ef16123e2a
     Pseudo is Norm-conserving + core correction, Zval = 13.0
     Generated using ONCVPSP code by D. R. Hamann
     Using radial grid of 1660 points,  6 beta functions with: 
                l(1) =   0
                l(2) =   0
                l(3) =   1
                l(4) =   1
                l(5) =   2
                l(6) =   2

     PseudoPot. # 3 for O  read from file:
     ./O.upf
     MD5 check sum: f226cbcd508cec715ff87a8f75a1dfba
     Pseudo is Norm-conserving + core correction, Zval =  6.0
     Generated using ONCVPSP code by D. R. Hamann
     Using radial grid of  936 points,  5 beta functions with: 
                l(1) =   0
                l(2) =   0
                l(3) =   1
                l(4) =   1
                l(5) =   2

     atomic species   valence    mass     pseudopotential
     Li                3.00     6.94100     Li( 1.00)
     Nb               13.00    92.90600     Nb( 1.00)
     O                 6.00    16.00000     O ( 1.00)

     No symmetry found



   Cartesian axes

     site n.     atom                  positions (alat units)
         1        Li     tau(   1) = (   0.0000242  -0.0000331   1.8110313  )
         2        Li     tau(   2) = (   0.0000215  -0.0000348   0.5497799  )
         3        Nb     tau(   3) = (   0.0000058  -0.0000130   0.0014561  )
         4        Nb     tau(   4) = (   0.0000098  -0.0000102   1.2627077  )
         5        O      tau(   5) = (   0.2853227  -0.0298562   1.5201617  )
         6        O      tau(   6) = (  -0.1685276  -0.2321350   1.5201771  )
         7        O      tau(   7) = (  -0.1167837   0.2621179   1.5200617  )
         8        O      tau(   8) = (  -0.3002795   0.0385064   1.0997862  )
         9        O      tau(   9) = (   0.1833906   0.2407501   1.0996654  )
        10        O      tau(  10) = (   0.1167673  -0.2792192   1.0996973  )

     number of k points=   216  Gaussian smearing, width (Ry)=  0.0200

     Number of k-points >= 100: set verbosity='high' to print them.

     Dense  grid:    96001 G-vectors     FFT dimensions: (  72,  72,  72)

     Estimated max dynamical RAM per process >      35.27 MB

     Estimated total dynamical RAM >       3.26 GB

     Initial potential from superposition of free atoms

     starting charge      67.9863, renormalised to      68.0000
     Starting wfcs are   48 randomized atomic wfcs +   12 random wfcs

     total cpu time spent up to now is       20.8 secs

     Self-consistent Calculation

     iteration #  1     ecut=   100.00 Ry     beta= 0.70
     Davidson diagonalization with overlap
     ethr =  1.00E-02,  avg # of iterations =  5.5

     total cpu time spent up to now is       42.4 secs

     total energy              =    -474.18517180 Ry
     estimated scf accuracy    <       4.37921334 Ry

     iteration #  2     ecut=   100.00 Ry     beta= 0.70
     Davidson diagonalization with overlap
     ethr =  6.44E-03,  avg # of iterations =  2.0

     total cpu time spent up to now is       65.3 secs

     total energy              =    -472.17951603 Ry
     estimated scf accuracy    <      20.54241731 Ry

     iteration #  3     ecut=   100.00 Ry     beta= 0.70
     Davidson diagonalization with overlap
     ethr =  6.44E-03,  avg # of iterations =  2.0

     total cpu time spent up to now is       83.9 secs

     total energy              =    -476.45160372 Ry
     estimated scf accuracy    <       0.57304693 Ry

     iteration #  4     ecut=   100.00 Ry     beta= 0.70
     Davidson diagonalization with overlap
     ethr =  8.43E-04,  avg # of iterations =  1.0

     total cpu time spent up to now is      141.6 secs

     total energy              =    -476.34695828 Ry
     estimated scf accuracy    <       0.25903862 Ry

     iteration #  5     ecut=   100.00 Ry     beta= 0.70
     Davidson diagonalization with overlap
     ethr =  3.81E-04,  avg # of iterations =  1.2

     total cpu time spent up to now is      182.8 secs

     total energy              =    -476.39844735 Ry
     estimated scf accuracy    <       0.00257980 Ry

     iteration #  6     ecut=   100.00 Ry     beta= 0.70
     Davidson diagonalization with overlap
     ethr =  3.79E-06,  avg # of iterations =  7.1

     total cpu time spent up to now is      199.9 secs

     total energy              =    -476.39887016 Ry
     estimated scf accuracy    <       0.00024003 Ry

     iteration #  7     ecut=   100.00 Ry     beta= 0.70
     Davidson diagonalization with overlap
     ethr =  3.53E-07,  avg # of iterations =  1.0

     total cpu time spent up to now is      208.7 secs

     total energy              =    -476.39889051 Ry
     estimated scf accuracy    <       0.00002898 Ry

     iteration #  8     ecut=   100.00 Ry     beta= 0.70
     Davidson diagonalization with overlap
     ethr =  4.26E-08,  avg # of iterations =  1.0

     total cpu time spent up to now is      218.7 secs

     total energy              =    -476.39889370 Ry
     estimated scf accuracy    <       0.00000462 Ry

     iteration #  9     ecut=   100.00 Ry     beta= 0.70
     Davidson diagonalization with overlap
     ethr =  6.80E-09,  avg # of iterations =  1.9

     total cpu time spent up to now is      227.9 secs

     total energy              =    -476.39889495 Ry
     estimated scf accuracy    <       0.00000082 Ry

     iteration # 10     ecut=   100.00 Ry     beta= 0.70
     Davidson diagonalization with overlap
     ethr =  1.21E-09,  avg # of iterations =  1.0

     total cpu time spent up to now is      339.7 secs

     total energy              =    -476.39889488 Ry
     estimated scf accuracy    <       0.00000046 Ry

     iteration # 11     ecut=   100.00 Ry     beta= 0.70
     Davidson diagonalization with overlap
     ethr =  6.70E-10,  avg # of iterations =  1.0

     total cpu time spent up to now is      378.8 secs

     total energy              =    -476.39889491 Ry
     estimated scf accuracy    <       0.00000003 Ry

     iteration # 12     ecut=   100.00 Ry     beta= 0.70
     Davidson diagonalization with overlap
     ethr =  5.07E-11,  avg # of iterations =  2.0

     total cpu time spent up to now is      491.4 secs

     total energy              =    -476.39889492 Ry
     estimated scf accuracy    <          9.2E-10 Ry

     iteration # 13     ecut=   100.00 Ry     beta= 0.70
     Davidson diagonalization with overlap
     ethr =  1.35E-12,  avg # of iterations =  2.0

     total cpu time spent up to now is      662.6 secs

     total energy              =    -476.39889492 Ry
     estimated scf accuracy    <          1.3E-10 Ry

     iteration # 14     ecut=   100.00 Ry     beta= 0.70
     Davidson diagonalization with overlap
     ethr =  1.90E-13,  avg # of iterations =  1.1

     total cpu time spent up to now is      685.0 secs

     End of self-consistent calculation

     Number of k-points >= 100: set verbosity='high' to print the bands.

     the Fermi energy is     9.2376 ev

!    total energy              =    -476.39889492 Ry
     estimated scf accuracy    <          1.4E-11 Ry
     smearing contrib. (-TS)   =      -0.00000000 Ry
     internal energy E=F+TS    =    -476.39889492 Ry

     The total energy is F=E-TS. E is the sum of the following terms:
     one-electron contribution =    -142.20037075 Ry
     hartree contribution      =     103.98566722 Ry
     xc contribution           =    -108.02121945 Ry
     ewald contribution        =    -330.16297193 Ry

     convergence has been achieved in  14 iterations

     Writing all to output data dir out/pwscf.save/ :
     XML data file, charge density, pseudopotentials, collected wavefunctions
 
     init_run     :     16.52s CPU     20.06s WALL (       1 calls)
     electrons    :    659.30s CPU    664.16s WALL (       1 calls)

     Called by init_run:
     wfcinit      :     16.30s CPU     19.80s WALL (       1 calls)
     potinit      :      0.01s CPU      0.03s WALL (       1 calls)
     hinit0       :      0.16s CPU      0.19s WALL (       1 calls)

     Called by electrons:
     c_bands      :    544.67s CPU    548.84s WALL (      14 calls)
     sum_band     :    110.13s CPU    110.76s WALL (      14 calls)
     v_of_rho     :      1.16s CPU      1.18s WALL (      15 calls)
     mix_rho      :      1.71s CPU      1.72s WALL (      14 calls)

     Called by c_bands:
     init_us_2    :      0.77s CPU      0.79s WALL (    2088 calls)
     cegterg      :    150.73s CPU    153.00s WALL (    1008 calls)

     Called by *egterg:
     cdiaghg      :     10.97s CPU     11.12s WALL (    3167 calls)
     h_psi        :    140.15s CPU    145.35s WALL (    3239 calls)
     g_psi        :      0.09s CPU      0.09s WALL (    2159 calls)

     Called by h_psi:
     h_psi:calbec :      5.71s CPU      5.94s WALL (    3239 calls)
     vloc_psi     :    133.00s CPU    137.95s WALL (    3239 calls)
                                        0.00s GPU  (    3239 calls)
     add_vuspsi   :      1.30s CPU      1.32s WALL (    3239 calls)

     General routines
     calbec       :      5.70s CPU      5.94s WALL (    3239 calls)
     fft          :      0.44s CPU      0.47s WALL (     150 calls)
     ffts         :      0.20s CPU      0.20s WALL (      14 calls)
     fftw         :    157.80s CPU    162.88s WALL (  339734 calls)
 
     Parallel routines
 
     PWSCF        :  11m17.34s CPU  11m27.64s WALL

 
   This run was terminated on:  17:51:31  19Dec2025            

=------------------------------------------------------------------------------=
   JOB DONE.
=------------------------------------------------------------------------------=
