29  -1 1.0e-02 
  0.997907911234823     
     2.5744747587826007    1.4863736950050308    4.6178143141981334
    -2.5744747587826007    1.4863736950050308    4.6178143141981334
    -0.0000000000000000   -2.9727473900100621    4.6178143141981334
   Li   Nb   O 
     2     2     6
Cartesian
   0.0031182782    0.0001214086    9.9252529016
   0.0031284636    0.0001380213    3.0130198053
   0.0031644124    0.0001317575    0.0079573402
   0.0031631596    0.0001335549    6.9201891838
   1.5669561471   -0.1636587414    8.3309958329
  -0.9205586208   -1.2722283010    8.3310205613
  -0.6368848987    1.4363142873    8.3309798194
  -1.6421727424    0.2109945362    6.0269002142
   1.0084808517    1.3196024956    6.0269227094
   0.6431987992   -1.5302407038    6.0269393765
