generated by RamanPy, mode 16 displacement 0.01
1.0
   2.5690887290    1.4832640690    4.6081534370
  -2.5690887290    1.4832640690    4.6081534370
   0.0000000000   -2.9665281390    4.6081534370
 Li Nb O
 2 2 6
Cartesian
  -0.0025467905    0.0027535805    9.9252529100
  -0.0010799902   -0.0036002407    3.0130593200
   0.0015968903    0.0034690906    0.0079710100
   0.0029609706   -0.0024095805    6.9202196600
   1.5615935196   -0.1648590102    8.3292806097
  -0.9237603000   -1.2717202199    8.3324662503
  -0.6426784405    1.4378408103    8.3313209101
  -1.6452904300    0.2088855196    6.0261560399
   1.0041873498    1.3199765801    6.0287880603
   0.6373057095   -1.5321276203    6.0258650198
