generated by RamanPy, mode 22 displacement 0.01
1.0
   2.5690887290    1.4832640690    4.6081534370
  -2.5690887290    1.4832640690    4.6081534370
   0.0000000000   -2.9665281390    4.6081534370
 Li Nb O
 2 2 6
Cartesian
   0.0000033000   -0.0000020300    9.9270601001
  -0.0000010400   -0.0000011400    3.0148345701
  -0.0000059600   -0.0000018200    0.0114467302
   0.0000062300   -0.0000006400    6.9236737602
   1.5644257300   -0.1648531300    8.3278456999
  -0.9249846801   -1.2723968800    8.3278553399
  -0.6394345200    1.4372578501    8.3278532099
  -1.6441054899    0.2108725100    6.0237743199
   1.0046626000    1.3184058400    6.0237630299
   0.6394332600   -1.5292724099    6.0237735799
