generated by RamanPy, mode 14 displacement 0.01
1.0
  15.0000000000    0.0000000000    0.0000000000
   0.0000000000   15.0000000000    0.0000000000
   0.0000000000    0.0000000000   25.0000000000
 N C H
 4 18 12
Cartesian
   8.6373110100    8.0000199700    7.6033702700
  11.3627934600    8.0000299900    7.6031038600
   8.5703054900    7.9999900700   12.4100445501
  11.4293257900    7.9999899700   12.4092649199
   9.2727893200    7.9999800300   11.2703395898
  10.7274392800    7.9999799500   11.2718302802
   9.2759875500    7.9999999300    8.8333653802
  10.7234875600    8.0000000300    8.8310527398
   8.5875136600    7.9999899800   10.0217288499
  11.4128964700    7.9999899500   10.0230179401
   9.2777306099    7.9999800000   13.5672361904
  10.7216297999    7.9999799300   13.5635133396
   9.2925761399    8.0000000100    6.3759333695
  10.7063897899    7.9999999400    6.3805448205
   8.5875043499    7.9999899700   14.8038515792
  11.4110747899    7.9999900400   14.8112596508
   8.6037934400    7.9999900000    5.1655824706
  11.3963431200    7.9999999900    5.1599779794
   9.2914636703    7.9999999600   15.9963823206
  10.7113431803    7.9999999700   15.9908373294
   9.3026181401    7.9999899900    3.9504649597
  10.6987155301    8.0000000500    3.9532858103
   7.4959954300    8.0000000900   10.0409507100
  12.5041761800    8.0000101100   10.0407276800
   7.6237098700    8.0000299400    7.6009933199
  12.3763280800    8.0000300700    7.6015775300
   7.4975146599    8.0000102600   14.7833008002
  12.5018748299    7.9999997600   14.7809288298
   7.5117379500    8.0000000300    5.1697511098
  12.4884216900    8.0000100100    5.1717487202
   8.7528978598    8.0000100900   16.9436462500
  11.2447480198    8.0000100400   16.9436735200
   8.7499535299    8.0000000400    3.0120764600
  11.2493045699    8.0000099300    3.0022149000
