generated by RamanPy, mode 4 displacement 0.01
1.0
   2.5690887290    1.4832640690    4.6081534370
  -2.5690887290    1.4832640690    4.6081534370
   0.0000000000   -2.9665281390    4.6081534370
 Li Nb O
 2 2 6
Cartesian
   0.0000013300   -0.0000000600    9.9256852800
  -0.0000014300   -0.0000003300    3.0134553600
   0.0000003200    0.0000001600    0.0091253601
  -0.0000003000    0.0000001400    6.9213552401
   1.5612318498   -0.1608474797    8.3300094199
  -0.9199186197   -1.2716442599    8.3300100799
  -0.6413145301    1.4324914997    8.3300090199
  -1.6491715203    0.2116256101    6.0259301899
   1.0078581502    1.3224126103    6.0259295199
   0.6413146501   -1.5340385903    6.0259290399
