generated by RamanPy, mode 57 displacement 0.01
1.0
  15.0000000000    0.0000000000    0.0000000000
   0.0000000000   15.0000000000    0.0000000000
   0.0000000000    0.0000000000   25.0000000000
 N C H
 4 18 12
Cartesian
   8.6344125498    8.0000282000    7.6013515699
  11.3599050998    8.0000220500    7.6050932901
   8.5676942198    7.9999928600   12.4113455001
  11.4267045198    7.9999867800   12.4079820899
   9.2724259300    7.9999696700   11.2727296501
  10.7270798700    7.9999900000   11.2694512099
   9.2762619100    8.0000020400    8.8306680299
  10.7237714000    7.9999983700    8.8337601801
   8.5911697303    7.9999943900   10.0224226900
  11.4165638803    7.9999862300   10.0223223000
   9.2784710700    7.9999807800   13.5657129300
  10.7223570500    7.9999803000   13.5650411900
   9.2935856900    7.9999640900    6.3780153800
  10.7073506700    8.0000357300    6.3784697600
   8.5891771201    7.9999868200   14.8069688200
  11.4127290201    7.9999928100   14.8081287000
   8.6048428901    8.0000445800    5.1634017601
  11.3974047101    7.9999455700    5.1621605999
   9.2897767000    7.9999981900   15.9932600100
  10.7096552900    8.0000005200   15.9939521700
   9.3017229900    8.0000065400    3.9523822400
  10.6977809200    7.9999825100    3.9513641300
   7.4969950201    7.9999964900   10.0407289800
  12.5051791301    8.0000146900   10.0409546500
   7.6229214599    8.0000277700    7.6005391599
  12.3755419899    8.0000319500    7.6020422201
   7.4981098000    8.0000154300   14.7815744000
  12.5024642300    7.9999960400   14.7826456700
   7.5120378700    7.9999181500    5.1712226600
  12.4887252700    8.0000925700    5.1702798300
   8.7536769000    8.0000136300   16.9433737400
  11.2455301100    8.0000093300   16.9439420500
   8.7499076500    7.9999606900    3.0125371800
  11.2492679200    8.0000517300    3.0017655700
