generated by RamanPy, mode 21 displacement 0.01
1.0
   2.5690887290    1.4832640690    4.6081534370
  -2.5690887290    1.4832640690    4.6081534370
   0.0000000000   -2.9665281390    4.6081534370
 Li Nb O
 2 2 6
Cartesian
   0.0012153599    0.0008680799    9.9252669100
   0.0012888799    0.0007839899    3.0130437900
   0.0017129799    0.0007400299    0.0079810300
   0.0013492099    0.0012986399    6.9202101100
   1.5608016902   -0.1625329201    8.3346797997
  -0.9266184998   -1.2732531799    8.3278765303
  -0.6411242499    1.4364459500    8.3305056100
  -1.6452532500    0.2096181401    6.0259378801
   1.0034076902    1.3174604702    6.0241218502
   0.6397697100   -1.5337300497    6.0307549097
