
     Program PWSCF v.7.5 starts on 19Dec2025 at 17:34:44 

     This program is part of the open-source Quantum ESPRESSO suite
     for quantum simulation of materials; please cite
         "P. Giannozzi et al., J. Phys.:Condens. Matter 21 395502 (2009);
         "P. Giannozzi et al., J. Phys.:Condens. Matter 29 465901 (2017);
         "P. Giannozzi et al., J. Chem. Phys. 152 154105 (2020);
          URL http://www.quantum-espresso.org", 
     in publications or presentations arising from this work. More details at
     http://www.quantum-espresso.org/quote

     Parallel version (MPI), running on    96 processors

     MPI processes distributed on     1 nodes
     351807 MiB available memory on the printing compute node when the environment starts
 
     Reading input from scf.in
Warning: card &CELL ignored

     Current dimensions of program PWSCF are:
     Max number of different atomic species (ntypx) = 10
     Max number of k-points (npk) =  40000
     Max angular momentum in pseudopotentials (lmaxx) =  4
 
     K-points division:     npool     =       3
     R & G space division:  proc/nbgrp/npool/nimage =      32
     Subspace diagonalization in iterative solution of the eigenvalue problem:
     a serial algorithm will be used

 
     Parallelization info
     --------------------
     sticks:   dense  smooth     PW     G-vecs:    dense   smooth      PW
     Min          87      87     25                 2997     2997     451
     Max          88      88     26                 3001     3001     454
     Sum        2813    2813    803                96001    96001   14483
 
     Using Slab Decomposition
 


     bravais-lattice index     =            0
     lattice parameter (alat)  =      10.3566  a.u.
     unit-cell volume          =     711.0045 (a.u.)^3
     number of atoms/cell      =           10
     number of atomic types    =            3
     number of electrons       =        68.00
     number of Kohn-Sham states=           60
     kinetic-energy cutoff     =     100.0000  Ry
     charge density cutoff     =     400.0000  Ry
     scf convergence threshold =      1.0E-10
     mixing beta               =       0.7000
     number of iterations used =            8  plain     mixing
     Exchange-correlation= PBESOL
                           (   1   4  10   8   0   0   0)

     celldm(1)=  10.356556  celldm(2)=   0.000000  celldm(3)=   0.000000
     celldm(4)=   0.000000  celldm(5)=   0.000000  celldm(6)=   0.000000

     crystal axes: (cart. coord. in units of alat)
               a(1) = (   0.468773   0.270646   0.840834 )  
               a(2) = (  -0.468773   0.270646   0.840834 )  
               a(3) = (   0.000000  -0.541292   0.840834 )  

     reciprocal axes: (cart. coord. in units 2 pi/alat)
               b(1) = (  1.066614  0.615810  0.396432 )  
               b(2) = ( -1.066614  0.615810  0.396432 )  
               b(3) = (  0.000000 -1.231620  0.396432 )  


     PseudoPot. # 1 for Li read from file:
     ./Li.upf
     MD5 check sum: dc9f6e608df41cc7e5665a263ba47fe0
     Pseudo is Norm-conserving, Zval =  3.0
     Generated using ONCVPSP code by D. R. Hamann
     Using radial grid of 1944 points,  4 beta functions with: 
                l(1) =   0
                l(2) =   0
                l(3) =   1
                l(4) =   1

     PseudoPot. # 2 for Nb read from file:
     ./Nb.upf
     MD5 check sum: f0922cae2acd95e7020481ef16123e2a
     Pseudo is Norm-conserving + core correction, Zval = 13.0
     Generated using ONCVPSP code by D. R. Hamann
     Using radial grid of 1660 points,  6 beta functions with: 
                l(1) =   0
                l(2) =   0
                l(3) =   1
                l(4) =   1
                l(5) =   2
                l(6) =   2

     PseudoPot. # 3 for O  read from file:
     ./O.upf
     MD5 check sum: f226cbcd508cec715ff87a8f75a1dfba
     Pseudo is Norm-conserving + core correction, Zval =  6.0
     Generated using ONCVPSP code by D. R. Hamann
     Using radial grid of  936 points,  5 beta functions with: 
                l(1) =   0
                l(2) =   0
                l(3) =   1
                l(4) =   1
                l(5) =   2

     atomic species   valence    mass     pseudopotential
     Li                3.00     6.94100     Li( 1.00)
     Nb               13.00    92.90600     Nb( 1.00)
     O                 6.00    16.00000     O ( 1.00)

     No symmetry found



   Cartesian axes

     site n.     atom                  positions (alat units)
         1        Li     tau(   1) = (  -0.0000029  -0.0000277   1.8110314  )
         2        Li     tau(   2) = (  -0.0000029   0.0000273   0.5497797  )
         3        Nb     tau(   3) = (   0.0000033   0.0000003   0.0014562  )
         4        Nb     tau(   4) = (   0.0000033  -0.0000003   1.2627077  )
         5        O      tau(   5) = (   0.2853817  -0.0298526   1.5201405  )
         6        O      tau(   6) = (  -0.1685818  -0.2320895   1.5200808  )
         7        O      tau(   7) = (  -0.1168175   0.2620445   1.5201791  )
         8        O      tau(   8) = (  -0.3002520   0.0384023   1.0997688  )
         9        O      tau(   9) = (   0.1834786   0.2407262   1.0997094  )
        10        O      tau(  10) = (   0.1167554  -0.2792307   1.0996705  )

     number of k points=   216  Gaussian smearing, width (Ry)=  0.0200

     Number of k-points >= 100: set verbosity='high' to print them.

     Dense  grid:    96001 G-vectors     FFT dimensions: (  72,  72,  72)

     Estimated max dynamical RAM per process >      35.27 MB

     Estimated total dynamical RAM >       3.26 GB

     Initial potential from superposition of free atoms

     starting charge      67.9863, renormalised to      68.0000
     Starting wfcs are   48 randomized atomic wfcs +   12 random wfcs

     total cpu time spent up to now is       38.6 secs

     Self-consistent Calculation

     iteration #  1     ecut=   100.00 Ry     beta= 0.70
     Davidson diagonalization with overlap
     ethr =  1.00E-02,  avg # of iterations =  5.5

     total cpu time spent up to now is       61.8 secs

     total energy              =    -474.18517113 Ry
     estimated scf accuracy    <       4.37921378 Ry

     iteration #  2     ecut=   100.00 Ry     beta= 0.70
     Davidson diagonalization with overlap
     ethr =  6.44E-03,  avg # of iterations =  2.0

     total cpu time spent up to now is       67.4 secs

     total energy              =    -472.17952048 Ry
     estimated scf accuracy    <      20.54239683 Ry

     iteration #  3     ecut=   100.00 Ry     beta= 0.70
     Davidson diagonalization with overlap
     ethr =  6.44E-03,  avg # of iterations =  2.0

     total cpu time spent up to now is       72.5 secs

     total energy              =    -476.45160415 Ry
     estimated scf accuracy    <       0.57304561 Ry

     iteration #  4     ecut=   100.00 Ry     beta= 0.70
     Davidson diagonalization with overlap
     ethr =  8.43E-04,  avg # of iterations =  1.0

     total cpu time spent up to now is       76.8 secs

     total energy              =    -476.34696115 Ry
     estimated scf accuracy    <       0.25904043 Ry

     iteration #  5     ecut=   100.00 Ry     beta= 0.70
     Davidson diagonalization with overlap
     ethr =  3.81E-04,  avg # of iterations =  1.2

     total cpu time spent up to now is       81.2 secs

     total energy              =    -476.39844825 Ry
     estimated scf accuracy    <       0.00258017 Ry

     iteration #  6     ecut=   100.00 Ry     beta= 0.70
     Davidson diagonalization with overlap
     ethr =  3.79E-06,  avg # of iterations =  7.1

     total cpu time spent up to now is       89.6 secs

     total energy              =    -476.39887129 Ry
     estimated scf accuracy    <       0.00025761 Ry

     iteration #  7     ecut=   100.00 Ry     beta= 0.70
     Davidson diagonalization with overlap
     ethr =  3.79E-07,  avg # of iterations =  1.0

     total cpu time spent up to now is       93.9 secs

     total energy              =    -476.39888413 Ry
     estimated scf accuracy    <       0.00007488 Ry

     iteration #  8     ecut=   100.00 Ry     beta= 0.70
     Davidson diagonalization with overlap
     ethr =  1.10E-07,  avg # of iterations =  1.0

     total cpu time spent up to now is       98.2 secs

     total energy              =    -476.39889344 Ry
     estimated scf accuracy    <       0.00000406 Ry

     iteration #  9     ecut=   100.00 Ry     beta= 0.70
     Davidson diagonalization with overlap
     ethr =  5.97E-09,  avg # of iterations =  2.0

     total cpu time spent up to now is      103.2 secs

     total energy              =    -476.39889468 Ry
     estimated scf accuracy    <       0.00000107 Ry

     iteration # 10     ecut=   100.00 Ry     beta= 0.70
     Davidson diagonalization with overlap
     ethr =  1.57E-09,  avg # of iterations =  1.0

     total cpu time spent up to now is      107.7 secs

     total energy              =    -476.39889465 Ry
     estimated scf accuracy    <       0.00000047 Ry

     iteration # 11     ecut=   100.00 Ry     beta= 0.70
     Davidson diagonalization with overlap
     ethr =  6.93E-10,  avg # of iterations =  1.0

     total cpu time spent up to now is      112.0 secs

     total energy              =    -476.39889467 Ry
     estimated scf accuracy    <       0.00000004 Ry

     iteration # 12     ecut=   100.00 Ry     beta= 0.70
     Davidson diagonalization with overlap
     ethr =  6.12E-11,  avg # of iterations =  1.8

     total cpu time spent up to now is      116.6 secs

     total energy              =    -476.39889468 Ry
     estimated scf accuracy    <          7.8E-09 Ry

     iteration # 13     ecut=   100.00 Ry     beta= 0.70
     Davidson diagonalization with overlap
     ethr =  1.14E-11,  avg # of iterations =  1.0

     total cpu time spent up to now is      121.3 secs

     End of self-consistent calculation

     Number of k-points >= 100: set verbosity='high' to print the bands.

     the Fermi energy is     9.2374 ev

!    total energy              =    -476.39889468 Ry
     estimated scf accuracy    <          6.8E-11 Ry
     smearing contrib. (-TS)   =      -0.00000000 Ry
     internal energy E=F+TS    =    -476.39889468 Ry

     The total energy is F=E-TS. E is the sum of the following terms:
     one-electron contribution =    -142.20042870 Ry
     hartree contribution      =     103.98571286 Ry
     xc contribution           =    -108.02122284 Ry
     ewald contribution        =    -330.16295600 Ry

     convergence has been achieved in  13 iterations

     Writing all to output data dir out/pwscf.save/ :
     XML data file, charge density, pseudopotentials, collected wavefunctions
 
     init_run     :     37.59s CPU     37.91s WALL (       1 calls)
     electrons    :     81.39s CPU     82.63s WALL (       1 calls)

     Called by init_run:
     wfcinit      :     37.36s CPU     37.58s WALL (       1 calls)
     potinit      :      0.01s CPU      0.02s WALL (       1 calls)
     hinit0       :      0.18s CPU      0.27s WALL (       1 calls)

     Called by electrons:
     c_bands      :     72.27s CPU     73.28s WALL (      13 calls)
     sum_band     :      8.97s CPU      9.15s WALL (      13 calls)
     v_of_rho     :      0.10s CPU      0.11s WALL (      14 calls)
     mix_rho      :      0.02s CPU      0.02s WALL (      13 calls)

     Called by c_bands:
     init_us_2    :      0.73s CPU      0.77s WALL (    1944 calls)
     cegterg      :     56.97s CPU     57.80s WALL (     936 calls)

     Called by *egterg:
     cdiaghg      :     10.26s CPU     10.34s WALL (    2936 calls)
     h_psi        :     76.17s CPU     77.07s WALL (    3008 calls)
     g_psi        :      0.08s CPU      0.08s WALL (    2000 calls)

     Called by h_psi:
     h_psi:calbec :      2.91s CPU      2.98s WALL (    3008 calls)
     vloc_psi     :     71.86s CPU     72.67s WALL (    3008 calls)
                                        0.00s GPU  (    3008 calls)
     add_vuspsi   :      1.25s CPU      1.27s WALL (    3008 calls)

     General routines
     calbec       :      2.90s CPU      2.97s WALL (    3008 calls)
     fft          :      0.05s CPU      0.13s WALL (     140 calls)
     ffts         :      0.01s CPU      0.01s WALL (      13 calls)
     fftw         :     74.37s CPU     75.23s WALL (  316918 calls)
 
     Parallel routines
 
     PWSCF        :   2m 0.29s CPU   2m 3.86s WALL

 
   This run was terminated on:  17:36:48  19Dec2025            

=------------------------------------------------------------------------------=
   JOB DONE.
=------------------------------------------------------------------------------=
