generated by RamanPy, mode 53 displacement -0.01
1.0
  15.0000000000    0.0000000000    0.0000000000
   0.0000000000   15.0000000000    0.0000000000
   0.0000000000    0.0000000000   25.0000000000
 N C H
 4 18 12
Cartesian
   8.6372507000    7.9997734800    7.6032226700
  11.3627475800    7.9997836900    7.6032508500
   8.5704492200    7.9999936400   12.4096658100
  11.4294679100    7.9999936300   12.4096637900
   9.2726227900    7.9999822000   11.2710794100
  10.7272861900    7.9999822300   11.2710954500
   9.2762342800    7.9999526400    8.8322104700
  10.7237277500    7.9999529600    8.8322175800
   8.5872773800    8.0000181900   10.0223522300
  11.4126632100    8.0000181700   10.0223749600
   9.2780268800    7.9999775800   13.5653826000
  10.7219151000    7.9999779500   13.5653769200
   9.2931469500    8.0008930001    6.3782451100
  10.7069263100    8.0008906401    6.3782494600
   8.5882101100    7.9999887800   14.8075671600
  11.4117675000    7.9999885600   14.8075348900
   8.6037704400    7.9969283495    5.1627569700
  11.3963558500    7.9969433795    5.1627988200
   9.2900686500    8.0000014700   15.9936210400
  10.7099459900    8.0000016100   15.9935900300
   9.3020320600    8.0020341503    3.9518449000
  10.6980974300    8.0020481303    3.9518837200
   7.4958790300    7.9999329800   10.0407989900
  12.5040611600    7.9999431000   10.0408613500
   7.6236875800    8.0000410800    7.6012576600
  12.3763092100    8.0000403900    7.6013429400
   7.4978130600    8.0000126000   14.7821450100
  12.5021691200    8.0000025300   14.7820769300
   7.5117199400    8.0048864208    5.1707219900
  12.4884144900    8.0048852308    5.1707767900
   8.7540896800    8.0000079300   16.9436702700
  11.2459404300    8.0000079000   16.9436461600
   8.7503888500    7.9965721094    3.0121446500
  11.2497506000    7.9965770794    3.0021514400
