generated by RamanPy, mode 56 displacement -0.01
1.0
  15.0000000000    0.0000000000    0.0000000000
   0.0000000000   15.0000000000    0.0000000000
   0.0000000000    0.0000000000   25.0000000000
 N C H
 4 18 12
Cartesian
   8.6372634400    7.9995617199    7.6032091800
  11.3627470800    7.9995692399    7.6032489900
   8.5704475500    7.9996929099   12.4096581800
  11.4294723500    7.9996797899   12.4096474300
   9.2726306700    8.0012713304   11.2710796400
  10.7272800200    8.0013122004   11.2710882100
   9.2762314000    8.0015389204    8.8322087500
  10.7237282900    8.0015570805    8.8322187300
   8.5872820700    7.9965080490   10.0223588800
  11.4126573500    7.9964720290   10.0223778100
   9.2780173300    7.9997009099   13.5653799100
  10.7219223600    7.9997033999   13.5653696800
   9.2931517000    7.9999116000    6.3782406800
  10.7069183600    7.9999022500    6.3782507000
   8.5881967000    8.0000946600   14.8075719300
  11.4117727800    8.0001035300   14.8075425200
   8.6037734000    7.9999732600    5.1627617000
  11.3963366700    7.9999942100    5.1628018200
   9.2900704500    8.0001329900   15.9936200600
  10.7099501400    8.0001408800   15.9936015600
   9.3020404200    8.0000514400    3.9518610200
  10.6980996300    8.0000650100    3.9518812800
   7.4958807200    8.0057239717   10.0408099500
  12.5040591300    8.0057845417   10.0408694300
   7.6236908800    8.0001255500    7.6012499600
  12.3763092900    8.0001260600    7.6013393400
   7.4978090200    7.9999822000   14.7821520600
  12.5021708100    7.9999540600   14.7820819400
   7.5117209800    8.0000013800    5.1707207200
  12.4884090300    7.9999952200    5.1707806000
   8.7540907700    7.9996550399   16.9436703700
  11.2459389700    7.9996443699   16.9436510300
   8.7503894600    7.9998906600    3.0121506900
  11.2497505600    7.9998912600    3.0021507700
