generated by RamanPy, mode 2 displacement -0.01
1.0
  15.0000000000    0.0000000000    0.0000000000
   0.0000000000   15.0000000000    0.0000000000
   0.0000000000    0.0000000000   25.0000000000
 N C H
 4 18 12
Cartesian
   8.6351970495    8.0000200100    7.6032054600
  11.3611546896    8.0000299900    7.6032526200
   8.5704492200    7.9999899800   12.4096639300
  11.4294692100    7.9999900000   12.4096447200
   9.2726282100    7.9999799900   11.2710701400
  10.7272794700    7.9999800100   11.2711003600
   9.2762340100    8.0000000100    8.8322208200
  10.7237428100    7.9999999800    8.8322154900
   8.5872897100    7.9999899900   10.0223719700
  11.4126656300    7.9999900100   10.0223689000
   9.2780197800    7.9999799900   13.5653782200
  10.7219189600    7.9999800000   13.5653732400
   9.2931576000    7.9999999800    6.3782278200
  10.7069372500    8.0000000400    6.3782559700
   8.5882000200    7.9999899800   14.8075701700
  11.4117694700    7.9999899900   14.8075389000
   8.6037786600    7.9999900100    5.1627504000
  11.3963449600    7.9999999800    5.1628087200
   9.2900708800    8.0000000200   15.9936193300
  10.7099500000    7.9999999900   15.9936012300
   9.3020405200    7.9999899800    3.9518680000
  10.6981010700    7.9999999900    3.9518719400
   7.4958573600    7.9999999900   10.0407959500
  12.5040437600    8.0000100000   10.0408801600
   7.6313305920    8.0000298300    7.6012739200
  12.3822104515    8.0000301100    7.6013218400
   7.4978099600    8.0000099400   14.7821498600
  12.5021710500    8.0000000500   14.7820801800
   7.5116968900    8.0000000300    5.1707364100
  12.4883928100    8.0000099900    5.1707681100
   8.7540894000    8.0000100000   16.9436712000
  11.2459393300    8.0000100100   16.9436491000
   8.7503863500    8.0000000300    3.0121449500
  11.2497465700    8.0000100000    3.0021549400
