generated by RamanPy, mode 7 displacement 0.01
1.0
   2.5690887290    1.4832640690    4.6081534370
  -2.5690887290    1.4832640690    4.6081534370
   0.0000000000   -2.9665281390    4.6081534370
 Li Nb O
 2 2 6
Cartesian
  -0.0000083200    0.0000122500    9.9284482599
  -0.0000071700   -0.0000108700    3.0098599501
   0.0000005000   -0.0000013300    0.0109443099
   0.0000003200    0.0000009100    6.9172456001
   1.5626394200   -0.1625394000    8.3337602199
  -0.9220877400   -1.2720185700    8.3337622099
  -0.6405494000    1.4345568600    8.3337572599
  -1.6436980900    0.2105283300    6.0241977701
   1.0041687500    1.3182201300    6.0242004901
   0.6395313300   -1.5287468800    6.0242027501
