generated by RamanPy, mode 12 displacement -0.01
1.0
   2.5690887290    1.4832640690    4.6081534370
  -2.5690887290    1.4832640690    4.6081534370
   0.0000000000   -2.9665281390    4.6081534370
 Li Nb O
 2 2 6
Cartesian
   0.0049822611   -0.0038195909    9.9252704800
  -0.0057136113   -0.0017709904    3.0130371500
  -0.0014550803    0.0016679304    0.0079773200
   0.0019047604    0.0010151802    6.9202066300
   1.5632613999   -0.1632737099    8.3299366498
  -0.9240991601   -1.2740415704    8.3315019501
  -0.6385646997    1.4357230899    8.3316323601
  -1.6447843299    0.2096173297    6.0276990502
   1.0051977400    1.3203347802    6.0259492098
   0.6383927796   -1.5311588102    6.0271771101
