generated by RamanPy, mode 18 displacement 0.01
1.0
  15.0000000000    0.0000000000    0.0000000000
   0.0000000000   15.0000000000    0.0000000000
   0.0000000000    0.0000000000   25.0000000000
 N C H
 4 18 12
Cartesian
   8.6372277100    8.0000200400    7.6013670800
  11.3627258900    8.0000300100    7.6051076100
   8.5701588900    7.9999899900   12.4121438100
  11.4291652900    7.9999900600   12.4071439000
   9.2731640300    7.9999802600   11.2668199099
  10.7278311400    7.9999800400   11.2753756401
   9.2763381400    7.9999999300    8.8326810400
  10.7238203800    7.9999999800    8.8317425800
   8.5875149300    7.9999898400   10.0245232400
  11.4129025400    7.9999899800   10.0202101800
   9.2774270000    7.9999799300   13.5643567900
  10.7213625900    7.9999799100   13.5664061300
   9.2931244900    8.0000000100    6.3786093800
  10.7068808500    7.9999999500    6.3778669500
   8.5886353600    7.9999900400   14.8086184500
  11.4121726500    7.9999901200   14.8065110500
   8.6032529100    7.9999900000    5.1645542300
  11.3958250500    8.0000000200    5.1610163900
   9.2894632100    7.9999999800   15.9926092900
  10.7093980900    7.9999999900   15.9945834900
   9.3028772000    7.9999900100    3.9501973000
  10.6989353400    8.0000000600    3.9535384800
   7.4959469300    8.0000000600   10.0396553400
  12.5041291300    8.0000100500   10.0420348100
   7.6236665700    8.0000300300    7.6027733500
  12.3762883700    8.0000298800    7.5998040800
   7.4979751100    8.0000098700   14.7817118800
  12.5023248700    7.9999991900   14.7825138500
   7.5115380500    7.9999997200    5.1700060800
  12.4882284400    8.0000097900    5.1714852300
   8.7547048700    8.0000098900   16.9437999600
  11.2465384300    8.0000098900   16.9435307900
   8.7494789000    7.9999998800    3.0123059700
  11.2488383200    8.0000097000    3.0019928000
