generated by RamanPy, mode 41 displacement -0.01
1.0
  15.0000000000    0.0000000000    0.0000000000
   0.0000000000   15.0000000000    0.0000000000
   0.0000000000    0.0000000000   25.0000000000
 N C H
 4 18 12
Cartesian
   8.6373696000    8.0000200300    7.6030855300
  11.3626387900    8.0000300100    7.6031291700
   8.5704613200    7.9999900300   12.4096473800
  11.4294621500    7.9999900300   12.4096377600
   9.2726712400    7.9999799900   11.2711502200
  10.7272382000    7.9999799400   11.2711581300
   9.2762297300    7.9999999700    8.8321787600
  10.7237359400    7.9999999700    8.8321853800
   8.5872253100    7.9999900400   10.0223362300
  11.4127109600    7.9999899500   10.0223528500
   9.2779544800    7.9999801100   13.5654333000
  10.7219823800    7.9999800700   13.5654246700
   9.2926963199    8.0000001700    6.3781044100
  10.7073706501    7.9999998200    6.3781222100
   8.5882040500    7.9999900700   14.8075332200
  11.4117714400    7.9999899500   14.8075017300
   8.6035753600    7.9999900300    5.1623482799
  11.3965392000    8.0000001700    5.1623938699
   9.2899862300    7.9999998800   15.9935821000
  10.7100304100    8.0000001800   15.9935608200
   9.3006268197    7.9999901200    3.9525599001
  10.6995134103    7.9999998000    3.9525761301
   7.4958639000    7.9999996800   10.0408911900
  12.5040749600    8.0000099100   10.0409514500
   7.6237246100    8.0000303500    7.6012683600
  12.3762747500    8.0000299700    7.6013555900
   7.4978061800    8.0000102900   14.7824098100
  12.5021753200    8.0000002400   14.7823328200
   7.5116608900    7.9999997900    5.1675542794
  12.4884704500    8.0000103600    5.1676102494
   8.7536939499    8.0000098700   16.9434504500
  11.2463303801    8.0000097200   16.9434326300
   8.7451374990    8.0000000300    3.0151829505
  11.2549930709    8.0000114300    3.0051762505
