generated by RamanPy, mode 92 displacement -0.01
1.0
  15.0000000000    0.0000000000    0.0000000000
   0.0000000000   15.0000000000    0.0000000000
   0.0000000000    0.0000000000   25.0000000000
 N C H
 4 18 12
Cartesian
   8.6372561300    7.9990155204    7.6032071900
  11.3627477200    8.0010296496    7.6032505700
   8.5704471600    7.9984508706   12.4096659500
  11.4294674600    8.0014781495   12.4096507200
   9.2726249100    7.9984053906   11.2710841100
  10.7272753500    8.0015258994   11.2710924700
   9.2762244200    7.9985769905    8.8322107400
  10.7237259800    8.0014214795    8.8322211600
   8.5872749500    7.9962271614   10.0223627700
  11.4126549300    8.0037477286   10.0223822300
   9.2780204200    8.0002366999   13.5653835100
  10.7219197100    7.9996816701   13.5653711700
   9.2931489500    8.0004979898    6.3782362900
  10.7069198800    7.9995003802    6.3782481300
   8.5882053600    8.0024106091   14.8075755300
  11.4117742700    7.9975627109   14.8075378000
   8.6037714800    8.0027194090    5.1627537600
  11.3963422100    7.9972669510    5.1627985100
   9.2900795600    8.0017201694   15.9936227900
  10.7099587100    7.9983174206   15.9935993500
   9.3020441300    8.0017820294    3.9518549500
  10.6981041600    7.9982009606    3.9518774100
   7.4958785300    7.9982779906   10.0408111600
  12.5040585000    8.0017286894   10.0408708500
   7.6236888400    7.9996191801    7.6012485300
  12.3763095000    8.0004349199    7.6013406000
   7.4978115600    8.0012090896   14.7821526400
  12.5021711300    7.9987991404   14.7820779600
   7.5117204000    8.0013712395    5.1707172000
  12.4884106500    7.9986355905    5.1707797700
   8.7540936400    8.0009641997   16.9436711800
  11.2459432700    7.9990761503   16.9436492900
   8.7503917900    8.0009896196    3.0121481800
  11.2497517700    7.9990153104    3.0021495500
