generated by RamanPy, mode 19 displacement 0.01
1.0
   2.5690887290    1.4832640690    4.6081534370
  -2.5690887290    1.4832640690    4.6081534370
   0.0000000000   -2.9665281390    4.6081534370
 Li Nb O
 2 2 6
Cartesian
  -0.0000035500    0.0000024300    9.9188007292
   0.0000016500    0.0000008500    3.0065585492
   0.0000018400   -0.0000012100    0.0101526403
   0.0000007200   -0.0000016900    6.9223869003
   1.5630688699   -0.1644978701    8.3306872600
  -0.9239965900   -1.2714120999    8.3306865000
  -0.6390731299    1.4359126800    8.3306807200
  -1.6450963800    0.2118566301    6.0266101300
   1.0060196401    1.3187634099    6.0266081600
   0.6390746099   -1.5306206800    6.0266052400
