generated by RamanPy, mode 52 displacement -0.01
1.0
  15.0000000000    0.0000000000    0.0000000000
   0.0000000000   15.0000000000    0.0000000000
   0.0000000000    0.0000000000   25.0000000000
 N C H
 4 18 12
Cartesian
   8.6353411901    8.0000207200    7.6054219999
  11.3608246201    8.0000307900    7.6010189901
   8.5699251400    7.9999899800   12.4081209901
  11.4289478600    7.9999901600   12.4111726799
   9.2724766800    7.9999806900   11.2699644000
  10.7271140800    7.9999797200   11.2722036600
   9.2765794700    8.0000001900    8.8328449500
  10.7240893800    8.0000002200    8.8315872000
   8.5872349300    7.9999889800   10.0219506800
  11.4126120800    7.9999902100   10.0228040200
   9.2783382000    7.9999797400   13.5645436000
  10.7222483100    7.9999797000   13.5661980400
   9.2936353700    7.9999968500    6.3792724600
  10.7073940600    7.9999981300    6.3772106700
   8.5895919599    7.9999904600   14.8079755400
  11.4131713399    7.9999903900   14.8071410100
   8.6067598799    7.9999990600    5.1624848000
  11.3993158999    8.0000084200    5.1630815600
   9.2890525300    8.0000000900   15.9956773199
  10.7089337700    7.9999999500   15.9915497801
   9.3001973401    7.9999843700    3.9486796901
  10.6962549701    7.9999948400    3.9550706599
   7.4958739000    8.0000014200   10.0404401200
  12.5040524900    8.0000096900   10.0412609100
   7.6231691300    8.0000300800    7.6020930100
  12.3757875200    8.0000294600    7.6004821900
   7.4982111000    8.0000092800   14.7817919700
  12.5025741100    7.9999995600   14.7824455000
   7.5125728500    7.9999855300    5.1715913900
  12.4892586900    7.9999964300    5.1699137300
   8.7541374600    8.0000094800   16.9444524100
  11.2459867400    8.0000098500   16.9428702900
   8.7502079700    8.0000091000    3.0110399100
  11.2495688200    8.0000187700    3.0032642100
