generated by RamanPy, mode 23 displacement -0.01
1.0
   2.5690887290    1.4832640690    4.6081534370
  -2.5690887290    1.4832640690    4.6081534370
   0.0000000000   -2.9665281390    4.6081534370
 Li Nb O
 2 2 6
Cartesian
  -0.0017858398   -0.0002140900    9.9252849900
   0.0005371199    0.0017107898    3.0130184900
  -0.0028460797   -0.0036106896    0.0079561300
   0.0040795596    0.0021270798    6.9202259200
   1.5657446398   -0.1633936700    8.3284765703
  -0.9244179699   -1.2697448103    8.3333314997
  -0.6413553999    1.4353928901    8.3312615200
  -1.6441033201    0.2107377400    6.0257946201
   1.0038573902    1.3214863198    6.0252970602
   0.6380377802   -1.5317723398    6.0297418797
