generated by RamanPy, mode 29 displacement -0.01
1.0
  15.0000000000    0.0000000000    0.0000000000
   0.0000000000   15.0000000000    0.0000000000
   0.0000000000    0.0000000000   25.0000000000
 N C H
 4 18 12
Cartesian
   8.6372557300    8.0000200200    7.6027186800
  11.3627562500    8.0000300200    7.6027569000
   8.5702342600    7.9999900000   12.4110092099
  11.4296854200    7.9999899700   12.4110003599
   9.2762126597    7.9999800100   11.2703140101
  10.7236956903    7.9999799400   11.2703266201
   9.2765092400    8.0000000300    8.8325648000
  10.7234470400    8.0000000100    8.8325743900
   8.5864517101    7.9999900700   10.0223447300
  11.4134914899    7.9999901900   10.0223630800
   9.2736865504    7.9999801400   13.5658542700
  10.7262544696    7.9999798500   13.5658426600
   9.2920625201    8.0000000400    6.3779994600
  10.7080062499    8.0000000100    6.3780115700
   8.5891913999    7.9999901000   14.8075387500
  11.4107776901    7.9999900400   14.8075066000
   8.6037390200    7.9999901000    5.1637713099
  11.3963730300    8.0000000500    5.1638129499
   9.2913519599    8.0000000300   15.9936819400
  10.7086700901    7.9999998500   15.9936612500
   9.3029230299    7.9999899200    3.9513405300
  10.6972156701    8.0000000100    3.9513583400
   7.4956313200    8.0000001200   10.0393765701
  12.5043095600    8.0000101200   10.0394384501
   7.6236853200    8.0000301000    7.6012830600
  12.3763151900    8.0000300200    7.6013713800
   7.4981430300    8.0000100000   14.7797120802
  12.5018365800    7.9999995700   14.7796450702
   7.5117076300    7.9999999900    5.1705851200
  12.4884230100    8.0000100400    5.1706450400
   8.7536682100    8.0000096800   16.9431972600
  11.2463576900    8.0000104600   16.9431796300
   8.7502216500    8.0000004100    3.0122463500
  11.2499178700    8.0000099700    3.0022454100
