generated by RamanPy, mode 41 displacement 0.01
1.0
  15.0000000000    0.0000000000    0.0000000000
   0.0000000000   15.0000000000    0.0000000000
   0.0000000000    0.0000000000   25.0000000000
 N C H
 4 18 12
Cartesian
   8.6371504000    8.0000199700    7.6033344700
  11.3628612100    8.0000299900    7.6033708300
   8.5704386800    7.9999899700   12.4096726200
  11.4294778500    7.9999899700   12.4096622400
   9.2725887600    7.9999800100   11.2710097800
  10.7273218000    7.9999800600   11.2710218700
   9.2762302700    8.0000000300    8.8322412400
  10.7237240600    8.0000000300    8.8322546200
   8.5873346900    7.9999899600   10.0223837700
  11.4126090400    7.9999900500   10.0224071500
   9.2780855200    7.9999798900   13.5653267000
  10.7218576200    7.9999799300   13.5653153300
   9.2936036801    7.9999998300    6.3783755900
  10.7064693499    8.0000001800    6.3783777900
   8.5881959500    7.9999899300   14.8076067800
  11.4117685600    7.9999900500   14.8075782700
   8.6039646400    7.9999899700    5.1631717201
  11.3961408000    7.9999998300    5.1632061301
   9.2901537700    8.0000001200   15.9936579000
  10.7098695900    7.9999998200   15.9936391800
   9.3034531803    7.9999898800    3.9511600999
  10.6966865897    8.0000002000    3.9511838699
   7.4958961000    8.0000003200   10.0407288100
  12.5040450400    8.0000100900   10.0407885500
   7.6236553900    8.0000296500    7.6012316400
  12.3763452500    8.0000300300    7.6013244100
   7.4978138200    8.0000097100   14.7818901900
  12.5021646800    7.9999997600   14.7818271800
   7.5117791100    8.0000002100    5.1738857206
  12.4883495500    8.0000096400    5.1739497506
   8.7544860501    8.0000101300   16.9438895500
  11.2455496199    8.0000102800   16.9438673700
   8.7556425010    7.9999999700    3.0091170495
  11.2445069291    8.0000085700    2.9991237495
