generated by RamanPy, mode 39 displacement -0.01
1.0
  15.0000000000    0.0000000000    0.0000000000
   0.0000000000   15.0000000000    0.0000000000
   0.0000000000    0.0000000000   25.0000000000
 N C H
 4 18 12
Cartesian
   8.6360942598    8.0000203000    7.6024747399
  11.3639091702    8.0000303400    7.6025092399
   8.5715448101    7.9999901500   12.4084840698
  11.4283764699    7.9999902200   12.4084783698
   9.2723416000    7.9999798600   11.2725211202
  10.7275545400    7.9999799000   11.2725373802
   9.2763545000    8.0000001200    8.8346175103
  10.7236031400    7.9999999100    8.8346247303
   8.5878525001    7.9999896700   10.0237546802
  11.4120974099    7.9999895100   10.0237694302
   9.2778248100    7.9999804400   13.5639775198
  10.7221284900    7.9999802800   13.5639750298
   9.2939529601    8.0000008100    6.3772899499
  10.7061338099    7.9999999300    6.3773059799
   8.5877192299    7.9999901000   14.8073874400
  11.4122416801    7.9999894100   14.8073545200
   8.6039827000    7.9999895400    5.1623813099
  11.3961190300    8.0000000700    5.1624249799
   9.2901133400    7.9999990200   15.9942120601
  10.7099074400    8.0000007300   15.9941910801
   9.3016746300    7.9999904200    3.9523665701
  10.6984645600    8.0000000600    3.9523820401
   7.4959919800    7.9999996200   10.0357858493
  12.5039515200    8.0000099100   10.0358391993
   7.6233590500    8.0000305500    7.5994095798
  12.3766391700    8.0000305700    7.5994981098
   7.4976332700    8.0000109400   14.7827926501
  12.5023437800    8.0000027100   14.7827090601
   7.5117891000    8.0000005500    5.1713849701
  12.4883385400    8.0000109700    5.1714585001
   8.7547592101    8.0000111600   16.9442352301
  11.2452723399    8.0000081800   16.9442139201
   8.7501150200    7.9999991100    3.0124069600
  11.2500237100    8.0000106800    3.0024051000
