generated by RamanPy, mode 13 displacement 0.01
1.0
   2.5690887290    1.4832640690    4.6081534370
  -2.5690887290    1.4832640690    4.6081534370
   0.0000000000   -2.9665281390    4.6081534370
 Li Nb O
 2 2 6
Cartesian
   0.0036853218    0.0048620723    9.9252698000
  -0.0000023200    0.0060512729    3.0130314200
  -0.0014263807    0.0000430200    0.0079856900
   0.0011609006   -0.0008125604    6.9202100800
   1.5625758294   -0.1651013206    8.3304679197
  -0.9229387896   -1.2741334608    8.3326380308
  -0.6398982999    1.4363904101    8.3299503495
  -1.6460890304    0.2088823790    6.0280419705
   1.0059292103    1.3190549498    6.0274371702
   0.6386510893   -1.5303764600    6.0253364892
