generated by RamanPy, mode 17 displacement 0.01
1.0
   2.5690887290    1.4832640690    4.6081534370
  -2.5690887290    1.4832640690    4.6081534370
   0.0000000000   -2.9665281390    4.6081534370
 Li Nb O
 2 2 6
Cartesian
   0.0027656088    0.0025349789    9.9252651500
  -0.0036808185    0.0010650896    3.0130439500
   0.0034539686   -0.0015851593    0.0079759000
  -0.0023810190   -0.0029450788    6.9202109000
   1.5656991592   -0.1627435904    8.3303528903
  -0.9235748501   -1.2691926713    8.3298434005
  -0.6408481097    1.4367621598    8.3328699192
  -1.6455092499    0.2134737589    6.0252710607
   1.0026219811    1.3208631794    6.0270769899
   0.6396277402   -1.5305654399    6.0284740694
