generated by RamanPy, mode 24 displacement -0.01
1.0
   2.5690887290    1.4832640690    4.6081534370
  -2.5690887290    1.4832640690    4.6081534370
   0.0000000000   -2.9665281390    4.6081534370
 Li Nb O
 2 2 6
Cartesian
  -0.0002106899    0.0017740093    9.9252518800
   0.0017342093   -0.0005354498    3.0130529400
  -0.0036180586    0.0028453289    0.0079944900
   0.0021276392   -0.0040746284    6.9201897800
   1.5648813096   -0.1618100108    8.3298364305
  -0.9248843895   -1.2730373397    8.3294118506
  -0.6377587809    1.4348820705    8.3338210389
  -1.6448955402    0.2136030189    6.0295099590
   1.0035879807    1.3194888500    6.0246627509
   0.6417574193   -1.5308824498    6.0266549101
