generated by RamanPy, mode 90 displacement -0.01
1.0
  15.0000000000    0.0000000000    0.0000000000
   0.0000000000   15.0000000000    0.0000000000
   0.0000000000    0.0000000000   25.0000000000
 N C H
 4 18 12
Cartesian
   8.6372578600    8.0048857499    7.6032130600
  11.3627478100    7.9951538101    7.6032533800
   8.5704518400    7.9976689200   12.4096561400
  11.4294719200    8.0022964800   12.4096463500
   9.2726314600    7.9986862900   11.2710767000
  10.7272811900    8.0012705500   11.2710867300
   9.2762288600    8.0006494800    8.8322097600
  10.7237274100    7.9993503000    8.8322196500
   8.5872796800    7.9986563000   10.0223585600
  11.4126593700    8.0013301100   10.0223770700
   9.2780213100    7.9995514500   13.5653763700
  10.7219218000    8.0003893100   13.5653668500
   9.2931488000    8.0006039200    6.3782459100
  10.7069176600    7.9993913200    6.3782567000
   8.5881996300    8.0012016200   14.8075657300
  11.4117709600    7.9987701500   14.8075375900
   8.6037702300    7.9979138100    5.1627665500
  11.3963402200    8.0020820500    5.1628098700
   9.2900691100    8.0012345200   15.9936160400
  10.7099492700    7.9987774400   15.9935966400
   9.3020421200    7.9981129900    3.9518676300
  10.6981024000    8.0019013100    3.9518891100
   7.4958799100    7.9995567700   10.0408098500
  12.5040598000    8.0004548800   10.0408679600
   7.6236896100    8.0014988900    7.6012507500
  12.3763092500    7.9985570300    7.6013408700
   7.4978098200    8.0006430100   14.7821485700
  12.5021702900    7.9993643200   14.7820799500
   7.5117200800    7.9989634600    5.1707218800
  12.4884100400    8.0010477400    5.1707841600
   8.7540896700    8.0007583900   16.9436688600
  11.2459394500    7.9992688600   16.9436492500
   8.7503908700    7.9988988700    3.0121520200
  11.2497508800    8.0011222800    3.0021527400
