generated by RamanPy, mode 88 displacement -0.01
1.0
  15.0000000000    0.0000000000    0.0000000000
   0.0000000000   15.0000000000    0.0000000000
   0.0000000000    0.0000000000   25.0000000000
 N C H
 4 18 12
Cartesian
   8.6369057801    7.9999371300    7.6048422596
  11.3630971499    7.9999661300    7.6048893296
   8.5701352801    7.9999912300   12.4079545304
  11.4298088199    7.9999823600   12.4079500104
   9.2726410400    7.9999854100   11.2700750203
  10.7272905100    7.9999838800   11.2700877603
   9.2762501000    7.9999819800    8.8329332598
  10.7236991600    7.9999868900    8.8329454198
   8.5868982101    7.9999955500   10.0223151400
  11.4130461199    8.0000013300   10.0223299700
   9.2780385100    7.9999769600   13.5632787705
  10.7219189800    7.9999727300   13.5632733705
   9.2931549200    8.0000777900    6.3804468194
  10.7069150300    8.0000717000    6.3804617794
   8.5880396000    7.9999838300   14.8049659107
  11.4119261800    7.9999878300   14.8049541707
   8.6036159000    8.0000769100    5.1654035493
  11.3965049800    8.0000650800    5.1654555093
   9.2900691400    8.0000012000   15.9907831707
  10.7099254100    8.0000112700   15.9907709607
   9.3020564000    7.9999338200    3.9547755692
  10.6981047100    7.9999314300    3.9548022692
   7.4957790800    8.0000012900   10.0408144200
  12.5041621100    8.0000153800   10.0408668600
   7.6236007100    8.0000036300    7.6017098099
  12.3763975000    8.0000057200    7.6018028899
   7.4977688800    8.0000061600   14.7813325202
  12.5022100800    7.9999978400   14.7812748602
   7.5116781400    8.0000293600    5.1715336698
  12.4884547800    8.0000300700    5.1716000298
   8.7541416500    8.0000090000   16.9428781602
  11.2458782400    8.0000167500   16.9428620702
   8.7504519500    7.9999543800    3.0129609598
  11.2496949300    7.9999627400    3.0029635998
