generated by RamanPy, mode 1 displacement -0.01
1.0
   2.5690887290    1.4832640690    4.6081534370
  -2.5690887290    1.4832640690    4.6081534370
   0.0000000000   -2.9665281390    4.6081534370
 Li Nb O
 2 2 6
Cartesian
  -0.0000006800   -0.0000005500    9.9253186200
  -0.0000003500    0.0000000900    3.0129913200
   0.0000000100    0.0000000400    0.0087246299
   0.0000000400   -0.0000000400    6.9194653201
   1.5612544304   -0.1616243903    8.3286935703
  -0.9206017404   -1.2712755802    8.3286935303
  -0.6406527199    1.4328998405    8.3286935503
  -1.6422117404    0.2097856202    6.0292664997
   1.0027844504    1.3173044403    6.0292664397
   0.6394273201   -1.5270898905    6.0292665197
