generated by RamanPy, mode 58 displacement 0.01
1.0
  15.0000000000    0.0000000000    0.0000000000
   0.0000000000   15.0000000000    0.0000000000
   0.0000000000    0.0000000000   25.0000000000
 N C H
 4 18 12
Cartesian
   8.6373063000    8.0005041600    7.6032341700
  11.3627965400    7.9995453300    7.6032145300
   8.5704945400    8.0001465300   12.4096392100
  11.4295151100    7.9998333800   12.4096836600
   9.2726297900    7.9995982000   11.2710567300
  10.7272868900    8.0003658600   11.2711200900
   9.2762263800    8.0001737700    8.8322328400
  10.7237321800    7.9998311600    8.8321929700
   8.5872104900    8.0000798300   10.0223581000
  11.4126029800    7.9998905500   10.0223800400
   9.2780159300    7.9998746700   13.5653770800
  10.7219096900    8.0000821900   13.5653778600
   9.2931450600    7.9977483498    6.3782431200
  10.7069109100    8.0022526202    6.3782459300
   8.5881879600    7.9999339700   14.8075772200
  11.4117507000    8.0000482100   14.8075278700
   8.6037551200    8.0033610202    5.1627519000
  11.3963199400    7.9966238198    5.1628124700
   9.2900753000    7.9999299400   15.9936238000
  10.7099543200    8.0000727900   15.9935921700
   9.3020447600    8.0010376901    3.9518528300
  10.6981054400    7.9989590799    3.9518887500
   7.4958599800    7.9999140000   10.0408102500
  12.5040437400    8.0001106600   10.0408674100
   7.6237025300    7.9998770700    7.6012579900
  12.3763225100    8.0001822400    7.6013253000
   7.4978063400    8.0001627600   14.7821565800
  12.5021640200    7.9998421200   14.7820680100
   7.5117155200    7.9949320496    5.1707134400
  12.4884041300    8.0050810604    5.1707906000
   8.7540961500    8.0000798100   16.9436737800
  11.2459471300    7.9999310600   16.9436442600
   8.7503968900    7.9974990898    3.0121444600
  11.2497580000    8.0024959002    3.0021563900
