generated by RamanPy, mode 75 displacement 0.01
1.0
  15.0000000000    0.0000000000    0.0000000000
   0.0000000000   15.0000000000    0.0000000000
   0.0000000000    0.0000000000   25.0000000000
 N C H
 4 18 12
Cartesian
   8.6367295301    8.0000251200    7.6007075106
  11.3622040301    8.0000339700    7.6057583594
   8.5708628199    7.9999891100   12.4066238807
  11.4298890599    7.9999881300   12.4126965193
   9.2751048395    7.9999845300   11.2696463103
  10.7297535795    7.9999847600   11.2725397497
   9.2741711705    7.9999945300    8.8307357703
  10.7216673105    7.9999940200    8.8337081197
   8.5874712000    7.9999906600   10.0217600001
  11.4128467600    7.9999903400   10.0229960299
   9.2759194305    7.9999790600   13.5642505302
  10.7198213105    7.9999778900   13.5665004998
   9.2946943697    7.9999976800    6.3771936302
  10.7084625097    8.0000006200    6.3792912498
   8.5878876001    7.9999908200   14.8075917200
  11.4114676201    7.9999897900   14.8075082200
   8.6039178500    7.9999891100    5.1626644800
  11.3964830600    8.0000019700    5.1628851500
   9.2917487096    7.9999998000   15.9929722001
  10.7116300696    7.9999998000   15.9942301699
   9.3006170103    7.9999916200    3.9513029501
  10.6966768603    7.9999982000    3.9524207499
   7.4959648000    8.0000014600   10.0417124998
  12.5041434900    8.0000111400   10.0399731702
   7.6235507200    8.0000211500    7.5999873203
  12.3761664400    8.0000191700    7.6026045097
   7.4976924800    8.0000107200   14.7830695698
  12.5020553400    8.0000020000   14.7811560102
   7.5117644100    8.0000004200    5.1713391399
  12.4884530700    8.0000110600    5.1701568201
   8.7545730399    8.0000104300   16.9434889200
  11.2464213099    8.0000106100   16.9438273100
   8.7500015401    8.0000016100    3.0119808700
  11.2493632401    8.0000093300    3.0023154100
