generated by RamanPy, mode 24 displacement 0.01
1.0
  15.0000000000    0.0000000000    0.0000000000
   0.0000000000   15.0000000000    0.0000000000
   0.0000000000    0.0000000000   25.0000000000
 N C H
 4 18 12
Cartesian
   8.6369445000    8.0000199900    7.6027714400
  11.3624376900    8.0000300300    7.6036694300
   8.5706633800    7.9999902500   12.4100163000
  11.4296907600    7.9999899600   12.4092907200
   9.2728855500    7.9999798400   11.2732073699
  10.7275219700    7.9999799300   11.2689620901
   9.2768715000    7.9999999500    8.8307086801
  10.7243467600    8.0000000300    8.8337326399
   8.5865250300    7.9999901900   10.0224604900
  11.4119114400    7.9999900300   10.0222737300
   9.2784540000    7.9999800600   13.5621422902
  10.7223473000    7.9999800800   13.5686193498
   9.2940047100    7.9999999700    6.3799594999
  10.7077792500    8.0000000600    6.3765439601
   8.5867995501    7.9999898900   14.8080027100
  11.4103660901    7.9999899300   14.8070999700
   8.6024938801    7.9999899900    5.1630999400
  11.3950643601    8.0000001000    5.1624568900
   9.2916580799    8.0000000800   15.9955471399
  10.7115448399    8.0000000200   15.9916719501
   9.3033954299    7.9999900900    3.9499204901
  10.6994637199    8.0000000300    3.9538203999
   7.4955960700    7.9999997800   10.0409726300
  12.5037775600    8.0000098800   10.0407102100
   7.6236084000    8.0000300800    7.6019208600
  12.3762294100    8.0000299800    7.6006721700
   7.4973166500    8.0000101800   14.7815262000
  12.5016759000    8.0000004700   14.7827110200
   7.5112752300    7.9999997600    5.1706109600
  12.4879654900    8.0000097100    5.1708884600
   8.7518459001    8.0000098800   16.9427636000
  11.2436919101    8.0000100900   16.9445602100
   8.7484589701    8.0000000500    3.0128987800
  11.2478158801    8.0000097900    3.0013985700
