generated by RamanPy, mode 60 displacement 0.01
1.0
  15.0000000000    0.0000000000    0.0000000000
   0.0000000000   15.0000000000    0.0000000000
   0.0000000000    0.0000000000   25.0000000000
 N C H
 4 18 12
Cartesian
   8.6372585800    7.9996833898    7.6032067500
  11.3627481500    8.0003663002    7.6032498600
   8.5704547900    8.0018862109   12.4096611000
  11.4294714100    7.9980945891   12.4096527800
   9.2726290700    7.9974761088   11.2710796300
  10.7272799400    8.0024820812   11.2710930100
   9.2762297400    8.0006800603    8.8322068900
  10.7237311700    7.9993191597    8.8322216000
   8.5872790400    7.9987463294   10.0223569200
  11.4126613800    8.0012344206   10.0223833900
   9.2780220100    7.9962660783   13.5653805400
  10.7219194100    8.0036945317   13.5653703400
   9.2931496400    7.9998304699    6.3782404200
  10.7069180200    8.0001702401    6.3782496700
   8.5882020600    7.9998629599   14.8075707400
  11.4117681000    8.0001155401   14.8075374900
   8.6037706100    7.9998939400    5.1627623000
  11.3963381700    8.0000960000    5.1627992600
   9.2900691600    7.9980236191   15.9936222600
  10.7099478700    8.0019782909   15.9935958200
   9.3020405600    7.9998746099    3.9518630300
  10.6981007200    8.0001142801    3.9518776700
   7.4958798300    8.0029451514   10.0408089300
  12.5040605400    7.9970622886   10.0408709700
   7.6236896800    8.0002805001    7.6012487200
  12.3763095000    7.9997799499    7.6013390000
   7.4978106800    8.0032367815   14.7821488900
  12.5021694900    7.9967739285   14.7820795500
   7.5117202300    8.0003013501    5.1707204900
  12.4884095300    7.9997099399    5.1707804800
   8.7540907400    8.0010016905   16.9436710700
  11.2459406600    7.9990164595   16.9436480100
   8.7503894700    8.0001233301    3.0121512600
  11.2497500500    7.9998899899    3.0021491600
