
     Program PWSCF v.7.5 starts on 19Dec2025 at 17:12: 1 

     This program is part of the open-source Quantum ESPRESSO suite
     for quantum simulation of materials; please cite
         "P. Giannozzi et al., J. Phys.:Condens. Matter 21 395502 (2009);
         "P. Giannozzi et al., J. Phys.:Condens. Matter 29 465901 (2017);
         "P. Giannozzi et al., J. Chem. Phys. 152 154105 (2020);
          URL http://www.quantum-espresso.org", 
     in publications or presentations arising from this work. More details at
     http://www.quantum-espresso.org/quote

     Parallel version (MPI), running on    96 processors

     MPI processes distributed on     1 nodes
     354058 MiB available memory on the printing compute node when the environment starts
 
     Reading input from scf.in
Warning: card &CELL ignored

     Current dimensions of program PWSCF are:
     Max number of different atomic species (ntypx) = 10
     Max number of k-points (npk) =  40000
     Max angular momentum in pseudopotentials (lmaxx) =  4
 
     K-points division:     npool     =       3
     R & G space division:  proc/nbgrp/npool/nimage =      32
     Subspace diagonalization in iterative solution of the eigenvalue problem:
     a serial algorithm will be used

 
     Parallelization info
     --------------------
     sticks:   dense  smooth     PW     G-vecs:    dense   smooth      PW
     Min          87      87     25                 2997     2997     451
     Max          88      88     26                 3001     3001     454
     Sum        2813    2813    803                96001    96001   14483
 
     Using Slab Decomposition
 


     bravais-lattice index     =            0
     lattice parameter (alat)  =      10.3566  a.u.
     unit-cell volume          =     711.0045 (a.u.)^3
     number of atoms/cell      =           10
     number of atomic types    =            3
     number of electrons       =        68.00
     number of Kohn-Sham states=           60
     kinetic-energy cutoff     =     100.0000  Ry
     charge density cutoff     =     400.0000  Ry
     scf convergence threshold =      1.0E-10
     mixing beta               =       0.7000
     number of iterations used =            8  plain     mixing
     Exchange-correlation= PBESOL
                           (   1   4  10   8   0   0   0)

     celldm(1)=  10.356556  celldm(2)=   0.000000  celldm(3)=   0.000000
     celldm(4)=   0.000000  celldm(5)=   0.000000  celldm(6)=   0.000000

     crystal axes: (cart. coord. in units of alat)
               a(1) = (   0.468773   0.270646   0.840834 )  
               a(2) = (  -0.468773   0.270646   0.840834 )  
               a(3) = (   0.000000  -0.541292   0.840834 )  

     reciprocal axes: (cart. coord. in units 2 pi/alat)
               b(1) = (  1.066614  0.615810  0.396432 )  
               b(2) = ( -1.066614  0.615810  0.396432 )  
               b(3) = (  0.000000 -1.231620  0.396432 )  


     PseudoPot. # 1 for Li read from file:
     ./Li.upf
     MD5 check sum: dc9f6e608df41cc7e5665a263ba47fe0
     Pseudo is Norm-conserving, Zval =  3.0
     Generated using ONCVPSP code by D. R. Hamann
     Using radial grid of 1944 points,  4 beta functions with: 
                l(1) =   0
                l(2) =   0
                l(3) =   1
                l(4) =   1

     PseudoPot. # 2 for Nb read from file:
     ./Nb.upf
     MD5 check sum: f0922cae2acd95e7020481ef16123e2a
     Pseudo is Norm-conserving + core correction, Zval = 13.0
     Generated using ONCVPSP code by D. R. Hamann
     Using radial grid of 1660 points,  6 beta functions with: 
                l(1) =   0
                l(2) =   0
                l(3) =   1
                l(4) =   1
                l(5) =   2
                l(6) =   2

     PseudoPot. # 3 for O  read from file:
     ./O.upf
     MD5 check sum: f226cbcd508cec715ff87a8f75a1dfba
     Pseudo is Norm-conserving + core correction, Zval =  6.0
     Generated using ONCVPSP code by D. R. Hamann
     Using radial grid of  936 points,  5 beta functions with: 
                l(1) =   0
                l(2) =   0
                l(3) =   1
                l(4) =   1
                l(5) =   2

     atomic species   valence    mass     pseudopotential
     Li                3.00     6.94100     Li( 1.00)
     Nb               13.00    92.90600     Nb( 1.00)
     O                 6.00    16.00000     O ( 1.00)

     No symmetry found



   Cartesian axes

     site n.     atom                  positions (alat units)
         1        Li     tau(   1) = (   0.0000647  -0.0000713   1.8110318  )
         2        Li     tau(   2) = (   0.0000278   0.0000924   0.5497793  )
         3        Nb     tau(   3) = (  -0.0000116  -0.0000252   0.0014562  )
         4        Nb     tau(   4) = (  -0.0000213   0.0000178   1.2627076  )
         5        O      tau(   5) = (   0.2853763  -0.0298674   1.5201643  )
         6        O      tau(   6) = (  -0.1685512  -0.2321783   1.5201083  )
         7        O      tau(   7) = (  -0.1167402   0.2620239   1.5201276  )
         8        O      tau(   8) = (  -0.3002227   0.0385142   1.0997299  )
         9        O      tau(   9) = (   0.1834552   0.2407504   1.0996837  )
        10        O      tau(  10) = (   0.1168348  -0.2792084   1.0997354  )

     number of k points=   216  Gaussian smearing, width (Ry)=  0.0200

     Number of k-points >= 100: set verbosity='high' to print them.

     Dense  grid:    96001 G-vectors     FFT dimensions: (  72,  72,  72)

     Estimated max dynamical RAM per process >      35.27 MB

     Estimated total dynamical RAM >       3.26 GB

     Initial potential from superposition of free atoms

     starting charge      67.9863, renormalised to      68.0000
     Starting wfcs are   48 randomized atomic wfcs +   12 random wfcs

     total cpu time spent up to now is        8.0 secs

     Self-consistent Calculation

     iteration #  1     ecut=   100.00 Ry     beta= 0.70
     Davidson diagonalization with overlap
     ethr =  1.00E-02,  avg # of iterations =  5.5

     total cpu time spent up to now is       19.8 secs

     total energy              =    -474.18517500 Ry
     estimated scf accuracy    <       4.37920945 Ry

     iteration #  2     ecut=   100.00 Ry     beta= 0.70
     Davidson diagonalization with overlap
     ethr =  6.44E-03,  avg # of iterations =  2.0

     total cpu time spent up to now is       26.6 secs

     total energy              =    -472.17952766 Ry
     estimated scf accuracy    <      20.54235052 Ry

     iteration #  3     ecut=   100.00 Ry     beta= 0.70
     Davidson diagonalization with overlap
     ethr =  6.44E-03,  avg # of iterations =  2.0

     total cpu time spent up to now is       36.4 secs

     total energy              =    -476.45160453 Ry
     estimated scf accuracy    <       0.57304485 Ry

     iteration #  4     ecut=   100.00 Ry     beta= 0.70
     Davidson diagonalization with overlap
     ethr =  8.43E-04,  avg # of iterations =  1.0

     total cpu time spent up to now is       40.8 secs

     total energy              =    -476.34696719 Ry
     estimated scf accuracy    <       0.25904117 Ry

     iteration #  5     ecut=   100.00 Ry     beta= 0.70
     Davidson diagonalization with overlap
     ethr =  3.81E-04,  avg # of iterations =  1.2

     total cpu time spent up to now is       45.3 secs

     total energy              =    -476.39845035 Ry
     estimated scf accuracy    <       0.00258233 Ry

     iteration #  6     ecut=   100.00 Ry     beta= 0.70
     Davidson diagonalization with overlap
     ethr =  3.80E-06,  avg # of iterations =  7.1

     total cpu time spent up to now is       53.8 secs

     total energy              =    -476.39886950 Ry
     estimated scf accuracy    <       0.00030322 Ry

     iteration #  7     ecut=   100.00 Ry     beta= 0.70
     Davidson diagonalization with overlap
     ethr =  4.46E-07,  avg # of iterations =  1.0

     total cpu time spent up to now is       58.2 secs

     total energy              =    -476.39887779 Ry
     estimated scf accuracy    <       0.00012441 Ry

     iteration #  8     ecut=   100.00 Ry     beta= 0.70
     Davidson diagonalization with overlap
     ethr =  1.83E-07,  avg # of iterations =  1.0

     total cpu time spent up to now is       62.5 secs

     total energy              =    -476.39889353 Ry
     estimated scf accuracy    <       0.00000415 Ry

     iteration #  9     ecut=   100.00 Ry     beta= 0.70
     Davidson diagonalization with overlap
     ethr =  6.10E-09,  avg # of iterations =  2.0

     total cpu time spent up to now is       67.8 secs

     total energy              =    -476.39889489 Ry
     estimated scf accuracy    <       0.00000095 Ry

     iteration # 10     ecut=   100.00 Ry     beta= 0.70
     Davidson diagonalization with overlap
     ethr =  1.39E-09,  avg # of iterations =  1.0

     total cpu time spent up to now is       72.2 secs

     total energy              =    -476.39889482 Ry
     estimated scf accuracy    <       0.00000047 Ry

     iteration # 11     ecut=   100.00 Ry     beta= 0.70
     Davidson diagonalization with overlap
     ethr =  6.94E-10,  avg # of iterations =  1.0

     total cpu time spent up to now is       76.6 secs

     total energy              =    -476.39889485 Ry
     estimated scf accuracy    <       0.00000004 Ry

     iteration # 12     ecut=   100.00 Ry     beta= 0.70
     Davidson diagonalization with overlap
     ethr =  5.55E-11,  avg # of iterations =  1.9

     total cpu time spent up to now is       81.2 secs

     total energy              =    -476.39889486 Ry
     estimated scf accuracy    <          7.1E-09 Ry

     iteration # 13     ecut=   100.00 Ry     beta= 0.70
     Davidson diagonalization with overlap
     ethr =  1.04E-11,  avg # of iterations =  1.0

     total cpu time spent up to now is       85.8 secs

     End of self-consistent calculation

     Number of k-points >= 100: set verbosity='high' to print the bands.

     the Fermi energy is     9.2379 ev

!    total energy              =    -476.39889486 Ry
     estimated scf accuracy    <          6.8E-11 Ry
     smearing contrib. (-TS)   =      -0.00000000 Ry
     internal energy E=F+TS    =    -476.39889486 Ry

     The total energy is F=E-TS. E is the sum of the following terms:
     one-electron contribution =    -142.20043955 Ry
     hartree contribution      =     103.98571653 Ry
     xc contribution           =    -108.02122288 Ry
     ewald contribution        =    -330.16294897 Ry

     convergence has been achieved in  13 iterations

     Writing all to output data dir out/pwscf.save/ :
     XML data file, charge density, pseudopotentials, collected wavefunctions
 
     init_run     :      7.01s CPU      7.25s WALL (       1 calls)
     electrons    :     76.63s CPU     77.85s WALL (       1 calls)

     Called by init_run:
     wfcinit      :      6.92s CPU      7.03s WALL (       1 calls)
     potinit      :      0.01s CPU      0.02s WALL (       1 calls)
     hinit0       :      0.04s CPU      0.15s WALL (       1 calls)

     Called by electrons:
     c_bands      :     65.91s CPU     66.89s WALL (      13 calls)
     sum_band     :     10.48s CPU     10.68s WALL (      13 calls)
     v_of_rho     :      0.13s CPU      0.14s WALL (      14 calls)
     mix_rho      :      0.06s CPU      0.07s WALL (      13 calls)

     Called by c_bands:
     init_us_2    :      0.74s CPU      0.78s WALL (    1944 calls)
     cegterg      :     59.36s CPU     60.19s WALL (     936 calls)

     Called by *egterg:
     cdiaghg      :     10.37s CPU     10.46s WALL (    2944 calls)
     h_psi        :     49.03s CPU     49.83s WALL (    3016 calls)
     g_psi        :      0.08s CPU      0.08s WALL (    2008 calls)

     Called by h_psi:
     h_psi:calbec :      2.40s CPU      2.47s WALL (    3016 calls)
     vloc_psi     :     45.25s CPU     45.96s WALL (    3016 calls)
                                        0.00s GPU  (    3016 calls)
     add_vuspsi   :      1.23s CPU      1.25s WALL (    3016 calls)

     General routines
     calbec       :      2.39s CPU      2.46s WALL (    3016 calls)
     fft          :      0.05s CPU      0.17s WALL (     140 calls)
     ffts         :      0.01s CPU      0.01s WALL (      13 calls)
     fftw         :     48.73s CPU     49.50s WALL (  317504 calls)
 
     Parallel routines
 
     PWSCF        :   1m24.90s CPU   1m28.38s WALL

 
   This run was terminated on:  17:13:29  19Dec2025            

=------------------------------------------------------------------------------=
   JOB DONE.
=------------------------------------------------------------------------------=
