generated by RamanPy, mode 66 displacement 0.01
1.0
  15.0000000000    0.0000000000    0.0000000000
   0.0000000000   15.0000000000    0.0000000000
   0.0000000000    0.0000000000   25.0000000000
 N C H
 4 18 12
Cartesian
   8.6372427200    8.0004458499    7.6032130500
  11.3627679200    8.0004691699    7.6032541100
   8.5704866000    8.0000187700   12.4096645900
  11.4294316500    8.0000129700   12.4096530900
   9.2726445100    7.9999026200   11.2710847600
  10.7272657300    7.9999136600   11.2710925200
   9.2762267300    8.0000736300    8.8322116500
  10.7237331600    8.0000605400    8.8322215200
   8.5872949500    8.0000587500   10.0223731400
  11.4126468300    8.0000616000   10.0223912200
   9.2780382300    7.9999651500   13.5653773900
  10.7219011000    7.9999627200   13.5653672300
   9.2931406600    7.9983174703    6.3782347800
  10.7069293500    7.9982381003    6.3782468900
   8.5882297500    8.0000115300   14.8075585800
  11.4117403800    8.0000157600   14.8075295100
   8.6037469800    8.0016096597    5.1627523800
  11.3963625000    8.0016513097    5.1627948300
   9.2900724900    8.0000211700   15.9936202200
  10.7099479300    8.0000179400   15.9936013800
   9.3020367200    8.0020976096    3.9518597800
  10.6981026700    8.0020688896    3.9518811900
   7.4958845700    7.9999184700   10.0408195000
  12.5040559700    7.9999224200   10.0408786900
   7.6236853000    7.9999050900    7.6012513000
  12.3763149200    7.9999176500    7.6013423000
   7.4978190000    7.9999645100   14.7821407000
  12.5021610800    7.9999564800   14.7820708900
   7.5117131300    7.9966890806    5.1707153300
  12.4884168000    7.9967334406    5.1707759800
   8.7540842000    7.9999551700   16.9436660600
  11.2459456800    7.9999537900   16.9436465400
   8.7503934500    7.9946237210    3.0121469500
  11.2497473100    7.9946322310    3.0021476400
