generated by RamanPy, mode 7 displacement -0.01
1.0
   2.5690887290    1.4832640690    4.6081534370
  -2.5690887290    1.4832640690    4.6081534370
   0.0000000000   -2.9665281390    4.6081534370
 Li Nb O
 2 2 6
Cartesian
   0.0000083200   -0.0000122500    9.9220917401
   0.0000071700    0.0000108700    3.0162200499
  -0.0000005000    0.0000013300    0.0050156901
  -0.0000003200   -0.0000009100    6.9231743999
   1.5649205800   -0.1650406000    8.3282797801
  -0.9253922600   -1.2727414300    8.3282777901
  -0.6395306000    1.4377831400    8.3282827401
  -1.6470019100    0.2112516700    6.0296822299
   1.0064512500    1.3207198700    6.0296795099
   0.6405486700   -1.5319731200    6.0296772499
