generated by RamanPy, mode 26 displacement -0.01
1.0
  15.0000000000    0.0000000000    0.0000000000
   0.0000000000   15.0000000000    0.0000000000
   0.0000000000    0.0000000000   25.0000000000
 N C H
 4 18 12
Cartesian
   8.6376510601    8.0000200600    7.6015350697
  11.3631368601    8.0000300100    7.6049287303
   8.5705769600    7.9999900400   12.4082384698
  11.4296019000    7.9999900100   12.4110628502
   9.2718190799    7.9999799200   11.2716334501
  10.7264563099    7.9999800500   11.2705433899
   9.2758592099    8.0000000300    8.8321066900
  10.7233648199    7.9999999300    8.8323179800
   8.5875052800    7.9999899200   10.0240282103
  11.4128882400    7.9999901100   10.0207059697
   9.2789322401    7.9999800400   13.5647242199
  10.7228182501    7.9999800900   13.5660167601
   9.2924468099    8.0000000400    6.3772527298
  10.7062153399    7.9999999400    6.3792329902
   8.5872776499    7.9999899800   14.8086750102
  11.4108518299    7.9999898900   14.8064618898
   8.6051704202    7.9999900000    5.1640719902
  11.3977355902    7.9999999600    5.1614899898
   9.2910828402    8.0000001200   15.9943113401
  10.7109735502    8.0000000600   15.9928998099
   9.3003407597    7.9999899400    3.9533339302
  10.6964029997    7.9999999800    3.9504100698
   7.4958996000    7.9999999200   10.0398890099
  12.5040806200    8.0000098300   10.0417878601
   7.6237862300    8.0000302100    7.6041384105
  12.3764057600    8.0000300700    7.5984626295
   7.4975216300    8.0000098200   14.7813562599
  12.5018821100    8.0000007000   14.7828669701
   7.5122068801    8.0000001200    5.1693655898
  12.4888955501    8.0000099700    5.1721334802
   8.7523340597    8.0000098400   16.9427372298
  11.2441876597    8.0000099600   16.9445785602
   8.7532143905    7.9999997700    3.0106687998
  11.2525748105    8.0000101500    3.0036313902
