generated by RamanPy, mode 25 displacement 0.01
1.0
   2.5690887290    1.4832640690    4.6081534370
  -2.5690887290    1.4832640690    4.6081534370
   0.0000000000   -2.9665281390    4.6081534370
 Li Nb O
 2 2 6
Cartesian
  -0.0000098100   -0.0000079600    9.9205778190
  -0.0000070900    0.0000110600    3.0177211510
   0.0000030100   -0.0000250800    0.0126343710
   0.0000107200    0.0000231900    6.9155575090
   1.5629431898   -0.1649459702    8.3313213801
  -0.9243118501   -1.2710633297    8.3313440101
  -0.6386358497    1.4360153700    8.3313215601
  -1.6459201901    0.2095752797    6.0266192199
   1.0044691398    1.3206289502    6.0266355299
   0.6414438603   -1.5302091900    6.0266444299
