generated by phonopy                    
  0.997907911234823     
     2.5744747587826007    1.4863736950050308    4.6178143141981334
    -2.5744747587826007    1.4863736950050308    4.6178143141981334
    -0.0000000000000000   -2.9727473900100621    4.6178143141981334
   Li   Nb   O 
     2     2     6
Direct
  0.7179500968733576  0.7179500968733576  0.7179500968733576
  0.2179500968733575  0.2179500968733575  0.2179500968733575
  0.0005772573323891  0.0005772573323891  0.0005772573323891
  0.5005772573323892  0.5005772573323892  0.5005772573323892
  0.8885701542231105  0.2798790558418890  0.6394377023959167
  0.2798790558418890  0.6394377023959167  0.8885701542231105
  0.6394377023959167  0.8885701542231105  0.2798790558418890
  0.1394377023959167  0.7798790558418893  0.3885701542231104
  0.7798790558418893  0.3885701542231104  0.1394377023959167
  0.3885701542231104  0.1394377023959167  0.7798790558418893
 
  0.00000000E+00  0.00000000E+00  0.00000000E+00
  0.00000000E+00  0.00000000E+00  0.00000000E+00
  0.00000000E+00  0.00000000E+00  0.00000000E+00
  0.00000000E+00  0.00000000E+00  0.00000000E+00
  0.00000000E+00  0.00000000E+00  0.00000000E+00
  0.00000000E+00  0.00000000E+00  0.00000000E+00
  0.00000000E+00  0.00000000E+00  0.00000000E+00
  0.00000000E+00  0.00000000E+00  0.00000000E+00
  0.00000000E+00  0.00000000E+00  0.00000000E+00
  0.00000000E+00  0.00000000E+00  0.00000000E+00
