generated by RamanPy, mode 67 displacement 0.01
1.0
  15.0000000000    0.0000000000    0.0000000000
   0.0000000000   15.0000000000    0.0000000000
   0.0000000000    0.0000000000   25.0000000000
 N C H
 4 18 12
Cartesian
   8.6372220200    8.0008196298    7.6032092300
  11.3627902800    7.9992371002    7.6032491300
   8.5704687600    7.9996986001   12.4096671300
  11.4294482500    8.0002813699   12.4096551200
   9.2726325500    8.0011615497   11.2710855300
  10.7272781100    7.9987976103   11.2710916400
   9.2762124700    7.9996222901    8.8322170400
  10.7237467500    8.0003789399    8.8322241600
   8.5872633200    8.0001346900   10.0223772100
  11.4126781000    7.9998459700   10.0223913900
   9.2780331600    7.9993326202   13.5653779800
  10.7219057300    8.0006273898   13.5653685100
   9.2931354400    7.9947973615    6.3782308700
  10.7069361200    8.0051768385    6.3782428600
   8.5882233900    8.0003602599   14.8075588700
  11.4117472700    7.9996193101   14.8075313500
   8.6037367200    8.0016201895    5.1627479700
  11.3963723400    7.9983949605    5.1627905600
   9.2900732100    7.9995095301   15.9936169600
  10.7099480000    8.0004902599   15.9936003300
   9.3020367900    7.9972796408    3.9518635900
  10.6981007000    8.0027396992    3.9518877500
   7.4958752100    7.9991707802   10.0408222300
  12.5040652500    8.0008378298   10.0408796100
   7.6236795600    8.0006144698    7.6012489400
  12.3763210400    7.9994459802    7.6013395000
   7.4978170900    8.0004440599   14.7821424800
  12.5021631700    7.9995656601   14.7820729000
   7.5117102200    8.0029157492    5.1707126600
  12.4884195100    7.9970455009    5.1707720100
   8.7540858900    7.9998996600   16.9436660300
  11.2459435200    8.0001202800   16.9436475400
   8.7503973000    7.9997055001    3.0121460800
  11.2497433600    8.0002300699    3.0021480500
