generated by RamanPy, mode 19 displacement -0.01
1.0
  15.0000000000    0.0000000000    0.0000000000
   0.0000000000   15.0000000000    0.0000000000
   0.0000000000    0.0000000000   25.0000000000
 N C H
 4 18 12
Cartesian
   8.6370394900    8.0000200200    7.6041002400
  11.3629710700    8.0000300200    7.6041128600
   8.5712890900    7.9999899900   12.4081732500
  11.4286351900    7.9999900100   12.4081962900
   9.2714581400    7.9999799900   11.2723753500
  10.7284445400    7.9999799300   11.2723269000
   9.2772456700    8.0000000400    8.8314216900
  10.7227127600    8.0000000100    8.8314379800
   8.5868689500    7.9999900400   10.0223668900
  11.4130679800    7.9999899400   10.0224176600
   9.2753719800    7.9999801400   13.5664853200
  10.7245756500    7.9999800600   13.5664614300
   9.2936747600    8.0000000900    6.3778724400
  10.7063950900    7.9999999600    6.3778882600
   8.5905052300    7.9999900700   14.8085843700
  11.4094590800    7.9999899900   14.8085699000
   8.6036355800    7.9999899500    5.1628722300
  11.3964820600    8.0000000200    5.1629381000
   9.2857037900    7.9999998800   15.9918463600
  10.7143242400    7.9999998800   15.9918118900
   9.3024022400    7.9999900400    3.9517658900
  10.6977258800    7.9999999800    3.9517622400
   7.4957409100    7.9999997400   10.0412652100
  12.5041982400    8.0000100300   10.0413088000
   7.6236467600    8.0000300500    7.6003723000
  12.3763536700    8.0000300400    7.6004862100
   7.4985484100    8.0000103200   14.7820935000
  12.5014294400    8.0000001400   14.7820172400
   7.5116781000    8.0000001700    5.1706900400
  12.4884544900    8.0000101600    5.1707396200
   8.7553811900    8.0000097800   16.9445870800
  11.2446410100    8.0000100400   16.9445682700
   8.7502970400    7.9999998500    3.0122422800
  11.2498550200    8.0000101100    3.0022438700
