generated by RamanPy, mode 15 displacement 0.01
1.0
  15.0000000000    0.0000000000    0.0000000000
   0.0000000000   15.0000000000    0.0000000000
   0.0000000000    0.0000000000   25.0000000000
 N C H
 4 18 12
Cartesian
   8.6365141401    8.0000199600    7.6017569401
  11.3634967799    8.0000299700    7.6018072001
   8.5704839800    7.9999900200   12.4097253200
  11.4294341000    7.9999900100   12.4097048300
   9.2725899200    7.9999800100   11.2711645800
  10.7273235700    7.9999800800   11.2711869100
   9.2761525800    7.9999999200    8.8334208899
  10.7237991100    7.9999999400    8.8334025099
   8.5875500600    7.9999899900   10.0216179301
  11.4123966000    7.9999900200   10.0216548001
   9.2779667300    7.9999800100   13.5653493600
  10.7219685800    7.9999800400   13.5653192400
   9.2975467296    7.9999999000    6.3794019099
  10.7025219604    8.0000000300    6.3794177599
   8.5881946000    7.9999899700   14.8075395800
  11.4117658800    7.9999900400   14.8075574700
   8.6017391102    7.9999899600    5.1628782800
  11.3983709498    7.9999999500    5.1629080900
   9.2900938200    8.0000000400   15.9936503100
  10.7099447200    8.0000000400   15.9935938800
   9.3056807797    7.9999898200    3.9507511701
  10.6944606203    7.9999999000    3.9507757101
   7.4959725800    8.0000000100   10.0409632900
  12.5039702000    8.0000099500   10.0410197500
   7.6235098600    8.0000299400    7.6032774798
  12.3764902400    8.0000299600    7.6033573998
   7.4978074100    8.0000100300   14.7821493200
  12.5021685000    7.9999999800   14.7820648300
   7.5111048801    8.0000000100    5.1705305900
  12.4890251199    8.0000100500    5.1705946000
   8.7540815600    8.0000101400   16.9436709600
  11.2459325500    8.0000099200   16.9436513800
   8.7495352801    8.0000000100    3.0129706899
  11.2506045899    8.0000098800    3.0029719599
