generated by RamanPy, mode 39 displacement 0.01
1.0
  15.0000000000    0.0000000000    0.0000000000
   0.0000000000   15.0000000000    0.0000000000
   0.0000000000    0.0000000000   25.0000000000
 N C H
 4 18 12
Cartesian
   8.6384257402    8.0000197000    7.6039452601
  11.3615908298    8.0000296600    7.6039907601
   8.5693551899    7.9999898500   12.4108359302
  11.4305635301    7.9999897800   12.4108216302
   9.2729184000    7.9999801400   11.2696388798
  10.7270054600    7.9999801000   11.2696426198
   9.2761055000    7.9999998800    8.8298024897
  10.7238568600    8.0000000900    8.8298152697
   8.5867074999    7.9999903300   10.0209653198
  11.4132225901    7.9999904900   10.0209905698
   9.2782151900    7.9999795600   13.5667824802
  10.7217115100    7.9999797200   13.5667649702
   9.2923470399    7.9999991900    6.3791900501
  10.7077061901    8.0000000700    6.3791940201
   8.5886807701    7.9999899000   14.8077525600
  11.4112983199    7.9999905900   14.8077254800
   8.6035573000    7.9999904600    5.1631386901
  11.3965609700    7.9999999300    5.1631750201
   9.2900266600    8.0000009800   15.9930279399
  10.7099925600    7.9999992700   15.9930089199
   9.3024053700    7.9999895800    3.9513534299
  10.6977354400    7.9999999400    3.9513779599
   7.4957680200    8.0000003800   10.0458341507
  12.5041684800    8.0000100900   10.0459008007
   7.6240209500    8.0000294500    7.6030904202
  12.3759808300    8.0000294300    7.6031818902
   7.4979867300    8.0000090600   14.7815073499
  12.5019962200    7.9999972900   14.7814509399
   7.5116509000    7.9999994500    5.1700550299
  12.4884814600    8.0000090300    5.1701014999
   8.7534207899    8.0000088400   16.9431047699
  11.2466076601    8.0000118200   16.9430860799
   8.7506649800    8.0000008900    3.0118930400
  11.2494762900    8.0000093200    3.0018949000
