
     Program PWSCF v.7.5 starts on 19Dec2025 at 17:19:12 

     This program is part of the open-source Quantum ESPRESSO suite
     for quantum simulation of materials; please cite
         "P. Giannozzi et al., J. Phys.:Condens. Matter 21 395502 (2009);
         "P. Giannozzi et al., J. Phys.:Condens. Matter 29 465901 (2017);
         "P. Giannozzi et al., J. Chem. Phys. 152 154105 (2020);
          URL http://www.quantum-espresso.org", 
     in publications or presentations arising from this work. More details at
     http://www.quantum-espresso.org/quote

     Parallel version (MPI), running on    96 processors

     MPI processes distributed on     1 nodes
     352163 MiB available memory on the printing compute node when the environment starts
 
     Reading input from scf.in
Warning: card &CELL ignored

     Current dimensions of program PWSCF are:
     Max number of different atomic species (ntypx) = 10
     Max number of k-points (npk) =  40000
     Max angular momentum in pseudopotentials (lmaxx) =  4
 
     K-points division:     npool     =       3
     R & G space division:  proc/nbgrp/npool/nimage =      32
     Subspace diagonalization in iterative solution of the eigenvalue problem:
     a serial algorithm will be used

 
     Parallelization info
     --------------------
     sticks:   dense  smooth     PW     G-vecs:    dense   smooth      PW
     Min          87      87     25                 2997     2997     451
     Max          88      88     26                 3001     3001     454
     Sum        2813    2813    803                96001    96001   14483
 
     Using Slab Decomposition
 


     bravais-lattice index     =            0
     lattice parameter (alat)  =      10.3566  a.u.
     unit-cell volume          =     711.0045 (a.u.)^3
     number of atoms/cell      =           10
     number of atomic types    =            3
     number of electrons       =        68.00
     number of Kohn-Sham states=           60
     kinetic-energy cutoff     =     100.0000  Ry
     charge density cutoff     =     400.0000  Ry
     scf convergence threshold =      1.0E-10
     mixing beta               =       0.7000
     number of iterations used =            8  plain     mixing
     Exchange-correlation= PBESOL
                           (   1   4  10   8   0   0   0)

     celldm(1)=  10.356556  celldm(2)=   0.000000  celldm(3)=   0.000000
     celldm(4)=   0.000000  celldm(5)=   0.000000  celldm(6)=   0.000000

     crystal axes: (cart. coord. in units of alat)
               a(1) = (   0.468773   0.270646   0.840834 )  
               a(2) = (  -0.468773   0.270646   0.840834 )  
               a(3) = (   0.000000  -0.541292   0.840834 )  

     reciprocal axes: (cart. coord. in units 2 pi/alat)
               b(1) = (  1.066614  0.615810  0.396432 )  
               b(2) = ( -1.066614  0.615810  0.396432 )  
               b(3) = (  0.000000 -1.231620  0.396432 )  


     PseudoPot. # 1 for Li read from file:
     ./Li.upf
     MD5 check sum: dc9f6e608df41cc7e5665a263ba47fe0
     Pseudo is Norm-conserving, Zval =  3.0
     Generated using ONCVPSP code by D. R. Hamann
     Using radial grid of 1944 points,  4 beta functions with: 
                l(1) =   0
                l(2) =   0
                l(3) =   1
                l(4) =   1

     PseudoPot. # 2 for Nb read from file:
     ./Nb.upf
     MD5 check sum: f0922cae2acd95e7020481ef16123e2a
     Pseudo is Norm-conserving + core correction, Zval = 13.0
     Generated using ONCVPSP code by D. R. Hamann
     Using radial grid of 1660 points,  6 beta functions with: 
                l(1) =   0
                l(2) =   0
                l(3) =   1
                l(4) =   1
                l(5) =   2
                l(6) =   2

     PseudoPot. # 3 for O  read from file:
     ./O.upf
     MD5 check sum: f226cbcd508cec715ff87a8f75a1dfba
     Pseudo is Norm-conserving + core correction, Zval =  6.0
     Generated using ONCVPSP code by D. R. Hamann
     Using radial grid of  936 points,  5 beta functions with: 
                l(1) =   0
                l(2) =   0
                l(3) =   1
                l(4) =   1
                l(5) =   2

     atomic species   valence    mass     pseudopotential
     Li                3.00     6.94100     Li( 1.00)
     Nb               13.00    92.90600     Nb( 1.00)
     O                 6.00    16.00000     O ( 1.00)

     No symmetry found



   Cartesian axes

     site n.     atom                  positions (alat units)
         1        Li     tau(   1) = (  -0.0000001   0.0000001   1.8109802  )
         2        Li     tau(   2) = (   0.0000000   0.0000000   0.5497285  )
         3        Nb     tau(   3) = (   0.0000000   0.0000000   0.0014279  )
         4        Nb     tau(   4) = (  -0.0000000   0.0000000   1.2626795  )
         5        O      tau(   5) = (   0.2853255  -0.0298656   1.5201954  )
         6        O      tau(   6) = (  -0.1685271  -0.2321665   1.5201952  )
         7        O      tau(   7) = (  -0.1167985   0.2620320   1.5201952  )
         8        O      tau(   8) = (  -0.3002459   0.0384798   1.0997780  )
         9        O      tau(   9) = (   0.1834476   0.2407806   1.0997782  )
        10        O      tau(  10) = (   0.1167985  -0.2792605   1.0997780  )

     number of k points=   216  Gaussian smearing, width (Ry)=  0.0200

     Number of k-points >= 100: set verbosity='high' to print them.

     Dense  grid:    96001 G-vectors     FFT dimensions: (  72,  72,  72)

     Estimated max dynamical RAM per process >      35.27 MB

     Estimated total dynamical RAM >       3.26 GB

     Initial potential from superposition of free atoms

     starting charge      67.9863, renormalised to      68.0000
     Starting wfcs are   48 randomized atomic wfcs +   12 random wfcs

     total cpu time spent up to now is        4.5 secs

     Self-consistent Calculation

     iteration #  1     ecut=   100.00 Ry     beta= 0.70
     Davidson diagonalization with overlap
     ethr =  1.00E-02,  avg # of iterations =  5.5

     total cpu time spent up to now is       50.7 secs

     total energy              =    -474.18502698 Ry
     estimated scf accuracy    <       4.37938262 Ry

     iteration #  2     ecut=   100.00 Ry     beta= 0.70
     Davidson diagonalization with overlap
     ethr =  6.44E-03,  avg # of iterations =  2.0

     total cpu time spent up to now is       63.4 secs

     total energy              =    -472.17926201 Ry
     estimated scf accuracy    <      20.54464222 Ry

     iteration #  3     ecut=   100.00 Ry     beta= 0.70
     Davidson diagonalization with overlap
     ethr =  6.44E-03,  avg # of iterations =  2.0

     total cpu time spent up to now is       88.1 secs

     total energy              =    -476.45159189 Ry
     estimated scf accuracy    <       0.57302472 Ry

     iteration #  4     ecut=   100.00 Ry     beta= 0.70
     Davidson diagonalization with overlap
     ethr =  8.43E-04,  avg # of iterations =  1.0

     total cpu time spent up to now is       92.8 secs

     total energy              =    -476.34696289 Ry
     estimated scf accuracy    <       0.25900406 Ry

     iteration #  5     ecut=   100.00 Ry     beta= 0.70
     Davidson diagonalization with overlap
     ethr =  3.81E-04,  avg # of iterations =  1.2

     total cpu time spent up to now is      100.3 secs

     total energy              =    -476.39844895 Ry
     estimated scf accuracy    <       0.00258263 Ry

     iteration #  6     ecut=   100.00 Ry     beta= 0.70
     Davidson diagonalization with overlap
     ethr =  3.80E-06,  avg # of iterations =  7.1

     total cpu time spent up to now is      115.4 secs

     total energy              =    -476.39887184 Ry
     estimated scf accuracy    <       0.00023707 Ry

     iteration #  7     ecut=   100.00 Ry     beta= 0.70
     Davidson diagonalization with overlap
     ethr =  3.49E-07,  avg # of iterations =  1.0

     total cpu time spent up to now is      124.0 secs

     total energy              =    -476.39889361 Ry
     estimated scf accuracy    <       0.00001590 Ry

     iteration #  8     ecut=   100.00 Ry     beta= 0.70
     Davidson diagonalization with overlap
     ethr =  2.34E-08,  avg # of iterations =  1.7

     total cpu time spent up to now is      144.7 secs

     total energy              =    -476.39889601 Ry
     estimated scf accuracy    <       0.00000562 Ry

     iteration #  9     ecut=   100.00 Ry     beta= 0.70
     Davidson diagonalization with overlap
     ethr =  8.26E-09,  avg # of iterations =  1.0

     total cpu time spent up to now is      180.3 secs

     total energy              =    -476.39889702 Ry
     estimated scf accuracy    <       0.00000070 Ry

     iteration # 10     ecut=   100.00 Ry     beta= 0.70
     Davidson diagonalization with overlap
     ethr =  1.03E-09,  avg # of iterations =  1.0

     total cpu time spent up to now is      188.8 secs

     total energy              =    -476.39889698 Ry
     estimated scf accuracy    <       0.00000024 Ry

     iteration # 11     ecut=   100.00 Ry     beta= 0.70
     Davidson diagonalization with overlap
     ethr =  3.50E-10,  avg # of iterations =  1.0

     total cpu time spent up to now is      238.2 secs

     total energy              =    -476.39889700 Ry
     estimated scf accuracy    <       0.00000002 Ry

     iteration # 12     ecut=   100.00 Ry     beta= 0.70
     Davidson diagonalization with overlap
     ethr =  3.28E-11,  avg # of iterations =  1.1

     total cpu time spent up to now is      245.5 secs

     total energy              =    -476.39889701 Ry
     estimated scf accuracy    <          6.6E-10 Ry

     iteration # 13     ecut=   100.00 Ry     beta= 0.70
     Davidson diagonalization with overlap
     ethr =  9.67E-13,  avg # of iterations =  2.0

     total cpu time spent up to now is      300.9 secs

     total energy              =    -476.39889701 Ry
     estimated scf accuracy    <          1.7E-10 Ry

     iteration # 14     ecut=   100.00 Ry     beta= 0.70
     Davidson diagonalization with overlap
     ethr =  2.53E-13,  avg # of iterations =  1.0

     total cpu time spent up to now is      322.3 secs

     End of self-consistent calculation

     Number of k-points >= 100: set verbosity='high' to print the bands.

     the Fermi energy is     9.2363 ev

!    total energy              =    -476.39889701 Ry
     estimated scf accuracy    <          7.9E-12 Ry
     smearing contrib. (-TS)   =      -0.00000000 Ry
     internal energy E=F+TS    =    -476.39889701 Ry

     The total energy is F=E-TS. E is the sum of the following terms:
     one-electron contribution =    -142.19525779 Ry
     hartree contribution      =     103.98321172 Ry
     xc contribution           =    -108.02120794 Ry
     ewald contribution        =    -330.16564300 Ry

     convergence has been achieved in  14 iterations

     Writing all to output data dir out/pwscf.save/ :
     XML data file, charge density, pseudopotentials, collected wavefunctions
 
     init_run     :      3.18s CPU      3.31s WALL (       1 calls)
     electrons    :    308.72s CPU    318.81s WALL (       1 calls)

     Called by init_run:
     wfcinit      :      2.88s CPU      2.96s WALL (       1 calls)
     potinit      :      0.02s CPU      0.03s WALL (       1 calls)
     hinit0       :      0.25s CPU      0.28s WALL (       1 calls)

     Called by electrons:
     c_bands      :    273.37s CPU    283.09s WALL (      14 calls)
     sum_band     :     30.98s CPU     31.26s WALL (      14 calls)
     v_of_rho     :      1.03s CPU      1.05s WALL (      15 calls)
     mix_rho      :      1.53s CPU      1.54s WALL (      14 calls)

     Called by c_bands:
     init_us_2    :      0.79s CPU      0.91s WALL (    2088 calls)
     cegterg      :    117.15s CPU    125.44s WALL (    1008 calls)

     Called by *egterg:
     cdiaghg      :     10.88s CPU     11.14s WALL (    3085 calls)
     h_psi        :     97.54s CPU    104.54s WALL (    3157 calls)
     g_psi        :      0.09s CPU      0.09s WALL (    2077 calls)

     Called by h_psi:
     h_psi:calbec :      4.81s CPU      5.20s WALL (    3157 calls)
     vloc_psi     :     91.28s CPU     97.84s WALL (    3157 calls)
                                        0.00s GPU  (    3157 calls)
     add_vuspsi   :      1.31s CPU      1.34s WALL (    3157 calls)

     General routines
     calbec       :      4.80s CPU      5.19s WALL (    3157 calls)
     fft          :      0.50s CPU      0.54s WALL (     150 calls)
     ffts         :      0.10s CPU      0.10s WALL (      14 calls)
     fftw         :     99.17s CPU    105.72s WALL (  338630 calls)
 
     Parallel routines
 
     PWSCF        :   5m14.12s CPU   5m26.31s WALL

 
   This run was terminated on:  17:24:38  19Dec2025            

=------------------------------------------------------------------------------=
   JOB DONE.
=------------------------------------------------------------------------------=
