generated by RamanPy, mode 12 displacement 0.01
1.0
  15.0000000000    0.0000000000    0.0000000000
   0.0000000000   15.0000000000    0.0000000000
   0.0000000000    0.0000000000   25.0000000000
 N C H
 4 18 12
Cartesian
   8.6372525300    8.0000200000    7.6032144500
  11.3627422600    8.0000300000    7.6032458300
   8.5704502900    7.9999899700   12.4096614200
  11.4294701600    7.9999900100   12.4096486700
   9.2726291500    7.9999800000   11.2710755300
  10.7272792200    7.9999800100   11.2710946400
   9.2762313700    8.0000000200    8.8321980100
  10.7237316100    7.9999999900    8.8322318400
   8.5873247900    7.9999899900   10.0223629800
  11.4127067100    7.9999900000   10.0223771700
   9.2780197100    7.9999800000   13.5653795400
  10.7219196900    7.9999800100   13.5653705500
   9.2931713500    8.0000000000    6.3783165000
  10.7069409000    7.9999999900    6.3781717500
   8.5882045000    7.9999900000   14.8075702200
  11.4117739200    7.9999899900   14.8075400100
   8.6019080102    7.9999900300    5.1627534000
  11.3944288002    7.9999999800    5.1628074500
   9.2900681200    8.0000000000   15.9936235600
  10.7099446700    8.0000000000   15.9935905100
   9.3023915400    7.9999899600    3.9523557900
  10.6984610400    8.0000000300    3.9513705200
   7.4957290500    8.0000000000   10.0408111800
  12.5039026800    8.0000100000   10.0408685900
   7.6237055100    8.0000299900    7.6012140900
  12.3763262600    8.0000300200    7.6013768800
   7.4977951300    8.0000099700   14.7821495300
  12.5021555100    8.0000000900   14.7820801700
   7.5180311295    8.0000000800    5.1707229400
  12.4948888995    8.0000101200    5.1707767400
   8.7540977800    8.0000100000   16.9436560900
  11.2459583200    8.0000099900   16.9436824400
   8.7492450001    8.0000000100    3.0102313302
  11.2485758001    8.0000098600    3.0041179498
