generated by RamanPy, mode 19 displacement -0.01
1.0
   2.5690887290    1.4832640690    4.6081534370
  -2.5690887290    1.4832640690    4.6081534370
   0.0000000000   -2.9665281390    4.6081534370
 Li Nb O
 2 2 6
Cartesian
   0.0000035500   -0.0000024300    9.9317392708
  -0.0000016500   -0.0000008500    3.0195214508
  -0.0000018400    0.0000012100    0.0058073597
  -0.0000007200    0.0000016900    6.9180330997
   1.5644911301   -0.1630821299    8.3313527400
  -0.9234834100   -1.2733479001    8.3313535000
  -0.6410068701    1.4364273200    8.3313592800
  -1.6456036200    0.2099233699    6.0272698700
   1.0046003599    1.3201765901    6.0272718400
   0.6410053901   -1.5300993200    6.0272747600
