generated by RamanPy, mode 8 displacement 0.01
1.0
  15.0000000000    0.0000000000    0.0000000000
   0.0000000000   15.0000000000    0.0000000000
   0.0000000000    0.0000000000   25.0000000000
 N C H
 4 18 12
Cartesian
   8.6372548300    8.0000200200    7.6032158300
  11.3627555900    8.0000300000    7.6032558600
   8.5704560000    7.9999900200   12.4096631400
  11.4294643000    7.9999900100   12.4096529800
   9.2726099200    7.9999800000   11.2711312500
  10.7272994500    7.9999799900   11.2711441300
   9.2762400800    7.9999999800    8.8321074600
  10.7237177300    8.0000000100    8.8321128600
   8.5853072998    7.9999900200   10.0224224900
  11.4147195603    7.9999899000   10.0224454200
   9.2780169300    7.9999800100   13.5653759700
  10.7219230200    7.9999800200   13.5653656800
   9.2931550100    8.0000000400    6.3782444700
  10.7069148800    7.9999999900    6.3782551800
   8.5882634800    7.9999900000   14.8075713300
  11.4117047300    7.9999900100   14.8075416100
   8.6037434700    7.9999899900    5.1627592600
  11.3963703200    8.0000000000    5.1627995500
   9.2900539900    7.9999999700   15.9936419300
  10.7099630800    8.0000000000   15.9936160600
   9.3020448300    7.9999900100    3.9518684400
  10.6980956100    8.0000000400    3.9518869300
   7.5025017308    7.9999998500   10.0407031600
  12.4971454691    8.0000099000   10.0407582100
   7.6237170100    8.0000300500    7.6012903400
  12.3762824400    8.0000300200    7.6013818200
   7.4975913500    8.0000100800   14.7821471700
  12.5023940300    8.0000000900   14.7820769500
   7.5118047500    8.0000000200    5.1707195700
  12.4883128700    8.0000100400    5.1707796000
   8.7541377200    8.0000100800   16.9435855400
  11.2459030900    8.0000099700   16.9435848800
   8.7503734200    8.0000001300    3.0121226300
  11.2497646600    8.0000100000    3.0021261800
