generated by RamanPy, mode 78 displacement -0.01
1.0
  15.0000000000    0.0000000000    0.0000000000
   0.0000000000   15.0000000000    0.0000000000
   0.0000000000    0.0000000000   25.0000000000
 N C H
 4 18 12
Cartesian
   8.6363629903    8.0000129400    7.6042698697
  11.3618876802    8.0000260700    7.6021534403
   8.5713371198    7.9999927400   12.4104027998
  11.4303274398    7.9999931800   12.4088697902
   9.2748379294    7.9999681200   11.2723710296
  10.7294870594    7.9999683400   11.2697365304
   9.2745276505    8.0000062700    8.8335301896
  10.7220300305    8.0000062000    8.8308279204
   8.5876401099    7.9999926100   10.0249923993
  11.4130156199    7.9999926800   10.0196720408
   9.2766825804    7.9999871400   13.5668355796
  10.7205793704    7.9999871100   13.5639190204
   9.2939470898    8.0000003400    6.3795535796
  10.7077184698    7.9999998600    6.3769476004
   8.5865436005    7.9999837100   14.8098009494
  11.4100823405    7.9999831300   14.8053619306
   8.6050423496    7.9999898300    5.1643857595
  11.3976342196    7.9999993900    5.1612210304
   9.2894686602    8.0000026700   15.9953090795
  10.7093487302    8.0000029200   15.9919982005
   9.3027322598    7.9999904000    3.9531636096
  10.6987922898    8.0000006900    3.9506520403
   7.4960034100    8.0000017400   10.0423481896
  12.5041823500    8.0000125000   10.0393039504
   7.6234504201    8.0000411100    7.6010023201
  12.3760794101    8.0000364500    7.6015761599
   7.4973239501    8.0000032400   14.7829005098
  12.5016755401    7.9999934100   14.7813501502
   7.5120870999    7.9999994300    5.1711297099
  12.4887830899    8.0000095700    5.1703874401
   8.7544760099    8.0000098000   16.9444747098
  11.2463352499    8.0000096900   16.9428656502
   8.7501771401    7.9999995000    3.0127689698
  11.2495300501    8.0000096100    3.0015491002
