generated by RamanPy, mode 48 displacement -0.01
1.0
  15.0000000000    0.0000000000    0.0000000000
   0.0000000000   15.0000000000    0.0000000000
   0.0000000000    0.0000000000   25.0000000000
 N C H
 4 18 12
Cartesian
   8.6372613300    8.0000172700    7.6032103800
  11.3627468500    8.0000271900    7.6032514500
   8.5704506500    8.0001487201   12.4096589800
  11.4294747600    8.0001492001   12.4096489400
   9.2726264800    8.0000962001   11.2710792700
  10.7272812900    8.0000960401   11.2710890200
   9.2762324900    8.0000171400    8.8322080700
  10.7237281700    8.0000171100    8.8322191600
   8.5872807600    7.9998961999   10.0223554900
  11.4126599800    7.9998961499   10.0223766500
   9.2780181100    7.9993152896   13.5653794600
  10.7219216900    7.9993131596   13.5653704700
   9.2931503900    8.0000033600    6.3782412100
  10.7069193300    8.0000033600    6.3782514000
   8.5881956200    8.0028865416   14.8075717100
  11.4117714800    8.0028896216   14.8075423700
   8.6037702800    7.9999888600    5.1627621400
  11.3963394300    7.9999975000    5.1628014700
   9.2900699100    7.9978254188   15.9936223700
  10.7099508300    7.9978284388   15.9936018100
   9.3020386200    7.9999894200    3.9518595200
  10.6981008300    8.0000022300    3.9518787100
   7.4958802900    8.0000875800   10.0408053500
  12.5040601000    8.0000976900   10.0408661700
   7.6236902900    8.0000229800    7.6012506800
  12.3763092400    8.0000232400    7.6013408400
   7.4978086300    7.9952679575   14.7821501200
  12.5021703900    7.9952528275   14.7820814700
   7.5117200500    8.0000034500    5.1707214500
  12.4884099500    8.0000161700    5.1707810500
   8.7540917700    8.0037372220   16.9436716700
  11.2459407400    8.0037308820   16.9436501400
   8.7503888800    8.0000025500    3.0121501700
  11.2497513300    8.0000075800    3.0021501000
