generated by RamanPy, mode 25 displacement -0.01
1.0
  15.0000000000    0.0000000000    0.0000000000
   0.0000000000   15.0000000000    0.0000000000
   0.0000000000    0.0000000000   25.0000000000
 N C H
 4 18 12
Cartesian
   8.6373734500    8.0000200200    7.6061282501
  11.3626370600    8.0000299900    7.6061772601
   8.5703819100    7.9999899400   12.4109636800
  11.4295387100    7.9999899500   12.4109568900
   9.2722493500    7.9999800900   11.2701540000
  10.7276602500    7.9999800600   11.2701561300
   9.2738785999    8.0000000800    8.8325758000
  10.7260832401    7.9999998800    8.8325904800
   8.5883312100    7.9999899600   10.0208476200
  11.4116060700    7.9999900200   10.0208627900
   9.2774669000    7.9999800100   13.5657393500
  10.7224765200    7.9999799200   13.5657380900
   9.2928254900    7.9999999300    6.3763322899
  10.7072446300    7.9999999300    6.3763373499
   8.5881194300    7.9999899600   14.8052317399
  11.4118455500    7.9999900700   14.8051985599
   8.6036176300    7.9999899800    5.1631385500
  11.3964900600    7.9999999100    5.1631703600
   9.2899594100    7.9999999800   15.9946303900
  10.7100662200    7.9999999700   15.9946041600
   9.3045722001    7.9999900400    3.9514424700
  10.6955696799    7.9999997800    3.9514680100
   7.4962463600    8.0000003300   10.0412945000
  12.5036926800    8.0000099800   10.0413565000
   7.6237090600    8.0000296100    7.5985607599
  12.3762912100    8.0000301300    7.5986403099
   7.4977403500    8.0000100900   14.7834316500
  12.5022378900    7.9999995000   14.7833640600
   7.5116818600    8.0000000500    5.1716437300
  12.4884473300    8.0000098500    5.1717071400
   8.7545876300    8.0000103700   16.9443174000
  11.2454330900    8.0000098700   16.9443015500
   8.7495656900    7.9999992100    3.0129942500
  11.2505765900    8.0000101200    3.0029974400
