generated by RamanPy, mode 34 displacement -0.01
1.0
  15.0000000000    0.0000000000    0.0000000000
   0.0000000000   15.0000000000    0.0000000000
   0.0000000000    0.0000000000   25.0000000000
 N C H
 4 18 12
Cartesian
   8.6378557999    8.0000199000    7.6007586502
  11.3633302499    8.0000300100    7.6056858998
   8.5714969199    7.9999897700   12.4095023000
  11.4304966299    7.9999899000   12.4099032400
   9.2713580801    7.9999799000   11.2714129000
  10.7259907601    7.9999800600   11.2707430600
   9.2778033699    8.0000001900    8.8330105899
  10.7252924499    8.0000000900    8.8313988301
   8.5873541700    7.9999900600   10.0228374900
  11.4127478800    7.9999898300   10.0219131700
   9.2773131101    7.9999800600   13.5647452101
  10.7212131901    7.9999801800   13.5658792600
   9.2908417902    8.0000000100    6.3812923997
  10.7046186602    7.9999996400    6.3752526703
   8.5884570500    7.9999900700   14.8072177100
  11.4120400300    7.9999894000   14.8079107700
   8.6044751599    7.9999901100    5.1640494499
  11.3970678099    8.0000000400    5.1615331901
   9.2899577500    7.9999999400   15.9939035300
  10.7098822800    8.0000000800   15.9933221800
   9.3014601801    7.9999899300    3.9509139501
  10.6975209201    8.0000000900    3.9528023099
   7.4959391700    8.0000001000   10.0422398899
  12.5041234500    8.0000103100   10.0394333601
   7.6238729400    8.0000298500    7.5976238203
  12.3764875800    8.0000299000    7.6049258097
   7.4978781300    8.0000096600   14.7821433200
  12.5022429500    8.0000022700   14.7821115300
   7.5118769200    8.0000001100    5.1700176601
  12.4885749500    8.0000103300    5.1714302699
   8.7543956700    8.0000102200   16.9439418500
  11.2461981100    8.0000098300   16.9434146900
   8.7516430699    8.0000000900    3.0110302001
  11.2509937299    8.0000100600    3.0032559399
