generated by RamanPy, mode 70 displacement 0.01
1.0
  15.0000000000    0.0000000000    0.0000000000
   0.0000000000   15.0000000000    0.0000000000
   0.0000000000    0.0000000000   25.0000000000
 N C H
 4 18 12
Cartesian
   8.6369458501    8.0000195000    7.6045377398
  11.3630731199    8.0000301200    7.6045966798
   8.5685695303    7.9999906300   12.4081818202
  11.4313615197    7.9999894900   12.4081591002
   9.2720202601    7.9999796700   11.2704449901
  10.7278913099    7.9999804400   11.2704504501
   9.2760414900    8.0000003700    8.8333506798
  10.7239178700    8.0000006500    8.8333688098
   8.5860339102    7.9999886400   10.0225645300
  11.4139077798    7.9999896400   10.0225866500
   9.2784190799    7.9999801400   13.5632899603
  10.7215265701    7.9999795700   13.5632672103
   9.2933472700    8.0000003200    6.3794882398
  10.7067307800    7.9999989100    6.3795169998
   8.5919830794    7.9999911200   14.8075491200
  11.4079813706    7.9999914800   14.8075047000
   8.6060659996    7.9999918500    5.1624554900
  11.3940360104    8.0000000800    5.1625132000
   9.2903861099    8.0000009300   15.9960728396
  10.7096236301    7.9999987100   15.9960366396
   9.3021480200    7.9999889000    3.9499206803
  10.6979752700    8.0000024000    3.9499615803
   7.4955270501    8.0000000200   10.0408769900
  12.5044134499    8.0000098700   10.0409370600
   7.6236039700    8.0000349200    7.6016713899
  12.3763984000    8.0000307600    7.6017675399
   7.4988950498    8.0000111100   14.7821236200
  12.5010836702    8.0000007200   14.7820536800
   7.5123742199    7.9999993400    5.1706092300
  12.4877534801    8.0000090400    5.1706679800
   8.7532996601    8.0000097200   16.9438783900
  11.2467312499    8.0000098300   16.9438515200
   8.7498712201    7.9999980000    3.0119094900
  11.2502697599    8.0000100600    3.0019187700
