generated by RamanPy, mode 22 displacement 0.01
1.0
  15.0000000000    0.0000000000    0.0000000000
   0.0000000000   15.0000000000    0.0000000000
   0.0000000000    0.0000000000   25.0000000000
 N C H
 4 18 12
Cartesian
   8.6371665100    8.0000200200    7.6012725004
  11.3626597200    8.0000300400    7.6051559196
   8.5706135900    7.9999900000   12.4064302806
  11.4296129500    7.9999899800   12.4128623294
   9.2714679102    7.9999799000   11.2726917197
  10.7261116902    7.9999800300   11.2695634003
   9.2762375700    7.9999999500    8.8324540200
  10.7236106200    8.0000000400    8.8320343100
   8.5874161500    7.9999900100   10.0228685699
  11.4128267800    7.9999900900   10.0217689501
   9.2785876299    7.9999800100   13.5685362494
  10.7224806499    7.9999799800   13.5621715406
   9.2937680599    8.0000000000    6.3799161697
  10.7076408299    8.0000000200    6.3766707803
   8.5888217799    7.9999900300   14.8074328900
  11.4124067999    7.9999900500   14.8077279300
   8.6027502802    7.9999900000    5.1635350898
  11.3953354802    8.0000000500    5.1618904302
   9.2893264601    8.0000000000   15.9925497502
  10.7091682902    8.0000000200   15.9946620398
   9.3031593598    7.9999900500    3.9500548004
  10.6991310298    8.0000000500    3.9537106996
   7.4958955900    7.9999998800   10.0408345100
  12.5040816500    8.0000098500   10.0409172700
   7.6236653200    8.0000301600    7.6036163795
  12.3762857000    8.0000299800    7.5988657305
   7.4980435800    8.0000099500   14.7825616599
  12.5024079300    7.9999996900   14.7816367801
   7.5113715201    7.9999996700    5.1703510101
  12.4880680701    8.0000097400    5.1712675599
   8.7550849798    8.0000099100   16.9440045299
  11.2469551198    8.0000099500   16.9432949201
   8.7489252103    7.9999999200    3.0126249499
  11.2483272803    8.0000097300    3.0017267401
