generated by RamanPy, mode 80 displacement 0.01
1.0
  15.0000000000    0.0000000000    0.0000000000
   0.0000000000   15.0000000000    0.0000000000
   0.0000000000    0.0000000000   25.0000000000
 N C H
 4 18 12
Cartesian
   8.6372666600    8.0019199893    7.6032222700
  11.3627439900    7.9997192501    7.6032609800
   8.5704412700    8.0029306689   12.4096705600
  11.4294783100    8.0028819189   12.4096593800
   9.2726278800    7.9959782715   11.2710979300
  10.7272788900    7.9962417914   11.2711080500
   9.2762292500    7.9997583901    8.8322327300
  10.7237311900    7.9997664701    8.8322421000
   8.5872756100    8.0015445594   10.0223835900
  11.4126622300    8.0014470994   10.0224038800
   9.2780211500    7.9990720503   13.5653766000
  10.7219213000    7.9988685804   13.5653674800
   9.2931494100    7.9991457703    6.3782373400
  10.7069209000    7.9992655903    6.3782464000
   8.5881948900    7.9998880500   14.8075520500
  11.4117775800    7.9997854901   14.8075245700
   8.6037751800    8.0004595398    5.1627461800
  11.3963346000    8.0002817399    5.1627850200
   9.2900705700    7.9999245200   15.9935936100
  10.7099498000    8.0001532599   15.9935754800
   9.3020396600    7.9998202701    3.9518383900
  10.6980995200    7.9999204400    3.9518577600
   7.4958788600    8.0024236091   10.0408191400
  12.5040605000    8.0017503893   10.0408797900
   7.6236914200    7.9945320821    7.6012542400
  12.3763086600    8.0008492697    7.6013432100
   7.4978088300    8.0002337799   14.7821426000
  12.5021720200    8.0002262799   14.7820738500
   7.5117213700    8.0008579697    5.1707143100
  12.4884085500    8.0003197499    5.1707738900
   8.7540919800    8.0001525999   16.9436632100
  11.2459375200    8.0003290199   16.9436441200
   8.7503882100    8.0001449499    3.0121446400
  11.2497515200    8.0001189400    3.0021444500
