28  -1 1.0e-02 
  0.997907911234823     
     2.5744747587826007    1.4863736950050308    4.6178143141981334
    -2.5744747587826007    1.4863736950050308    4.6178143141981334
    -0.0000000000000000   -2.9727473900100621    4.6178143141981334
   Li   Nb   O 
     2     2     6
Cartesian
  -0.0000207008   -0.0000248410    9.9221439115
  -0.0000208097   -0.0000248954    3.0099152817
  -0.0000210821   -0.0000252223    0.0048128858
  -0.0000210277   -0.0000252768    6.9170426596
   1.5637564359   -0.1638214410    8.3278485455
  -0.9237615454   -1.2723981342    8.3278486545
  -0.6400579735    1.4361436905    8.3278487634
  -1.6453697838    0.2108657716    6.0237722085
   1.0052899110    1.3194430641    6.0237719361
   0.6400164085   -1.5303843936    6.0237719361
