generated by RamanPy, mode 18 displacement -0.01
1.0
   2.5690887290    1.4832640690    4.6081534370
  -2.5690887290    1.4832640690    4.6081534370
   0.0000000000   -2.9665281390    4.6081534370
 Li Nb O
 2 2 6
Cartesian
  -0.0000140800    0.0000236600    9.9293962804
  -0.0000154500   -0.0000247500    3.0089254896
   0.0000103300    0.0000057100    0.0100729902
   0.0000103000   -0.0000049600    6.9181146398
   1.5630688599   -0.1664303503    8.3295788499
  -0.9256748602   -1.2704386398    8.3295862599
  -0.6374057097    1.4368857001    8.3295768399
  -1.6472835402    0.2089510298    6.0283731301
   1.0046002399    1.3221086003    6.0283799901
   0.6426716803   -1.5310766201    6.0283836201
