generated by RamanPy, mode 61 displacement 0.01
1.0
  15.0000000000    0.0000000000    0.0000000000
   0.0000000000   15.0000000000    0.0000000000
   0.0000000000    0.0000000000   25.0000000000
 N C H
 4 18 12
Cartesian
   8.6372512400    8.0000754200    7.6032026100
  11.3627463500    8.0000865100    7.6032513600
   8.5704380600    8.0005039901   12.4096553400
  11.4294960700    8.0005026501   12.4096491000
   9.2726193400    8.0002141900   11.2710720600
  10.7272874000    8.0002143000   11.2710927900
   9.2762279400    7.9998512200    8.8322018900
  10.7237355900    7.9998485500    8.8322276200
   8.5872659400    8.0000976300   10.0223438100
  11.4126762800    8.0000972300   10.0223868400
   9.2780125900    7.9978425396   13.5653827600
  10.7219324900    7.9978422396   13.5653690000
   9.2931474200    8.0000387900    6.3782424800
  10.7069161900    8.0000374100    6.3782482600
   8.5881834000    8.0020439504   14.8075826400
  11.4117844800    8.0020431604   14.8075411900
   8.6037715400    7.9999709300    5.1627667700
  11.3963384400    7.9999861800    5.1627956000
   9.2900647900    8.0018291903   15.9936313700
  10.7099482400    8.0018296403   15.9935936400
   9.3020433800    7.9999622400    3.9518698100
  10.6981033600    7.9999744600    3.9518715900
   7.4958759100    7.9995578599   10.0408017900
  12.5040647900    7.9995679699   10.0408720600
   7.6236876700    7.9999844500    7.6012472400
  12.3763090200    7.9999872300    7.6013386200
   7.4978049300    7.9967042594   14.7821542300
  12.5021743600    7.9966986694   14.7820845200
   7.5117204900    8.0000372500    5.1707208300
  12.4884096200    8.0000385800    5.1707809800
   8.7540943100    7.9948725991   16.9436767600
  11.2459391400    7.9948730291   16.9436485900
   8.7503882400    8.0000664800    3.0121544500
  11.2497489800    8.0000748200    3.0021464100
