generated by RamanPy, mode 10 displacement -0.01
1.0
   2.5690887290    1.4832640690    4.6081534370
  -2.5690887290    1.4832640690    4.6081534370
   0.0000000000   -2.9665281390    4.6081534370
 Li Nb O
 2 2 6
Cartesian
   0.0000041300   -0.0000042600    9.9262428197
   0.0000023800    0.0000016100    3.0120667103
  -0.0000005400    0.0000001000    0.0118032587
  -0.0000004300    0.0000002800    6.9163867613
   1.5665691090   -0.1623344205    8.3297621904
  -0.9238733000   -1.2755240989    8.3297621304
  -0.6426950791    1.4378571094    8.3297625704
  -1.6454833000    0.2140334189    6.0281976396
   1.0080983190    1.3180154605    6.0281976796
   0.6373850509   -1.5320469894    6.0281978796
