generated by RamanPy, mode 15 displacement -0.01
1.0
  15.0000000000    0.0000000000    0.0000000000
   0.0000000000   15.0000000000    0.0000000000
   0.0000000000    0.0000000000   25.0000000000
 N C H
 4 18 12
Cartesian
   8.6380058599    8.0000200400    7.6046630599
  11.3620032201    8.0000300300    7.6046927999
   8.5704160200    7.9999899800   12.4095946800
  11.4295059000    7.9999899900   12.4095951700
   9.2726700800    7.9999799900   11.2709954200
  10.7272364300    7.9999799200   11.2709930900
   9.2763074200    8.0000000800    8.8309991101
  10.7236608900    8.0000000600    8.8310374901
   8.5870099400    7.9999900100   10.0231020699
  11.4129234000    7.9999899800   10.0231051999
   9.2780732700    7.9999799900   13.5654106400
  10.7218714200    7.9999799600   13.5654207600
   9.2887532704    8.0000001000    6.3770780901
  10.7113180396    7.9999999700    6.3770822401
   8.5882054000    7.9999900300   14.8076004200
  11.4117741200    7.9999899600   14.8075225300
   8.6058008898    7.9999900400    5.1626417200
  11.3943090502    8.0000000500    5.1626919100
   9.2900461800    7.9999999600   15.9935896900
  10.7099552800    7.9999999600   15.9936061200
   9.2983992203    7.9999901800    3.9529688299
  10.7017393797    8.0000001000    3.9529842899
   7.4957874200    7.9999999900   10.0406567100
  12.5041498000    8.0000100500   10.0407202500
   7.6238701400    8.0000300600    7.5992225202
  12.3761297600    8.0000300400    7.5993226002
   7.4978125900    8.0000099700   14.7821506800
  12.5021715000    8.0000000200   14.7820951700
   7.5123351199    7.9999999900    5.1709094100
  12.4877948801    8.0000099500    5.1709654000
   8.7540984400    8.0000098600   16.9436690400
  11.2459474500    8.0000100800   16.9436486200
   8.7512447199    7.9999999900    3.0113293101
  11.2488954101    8.0000101200    3.0013280401
