generated by RamanPy, mode 12 displacement 0.01
1.0
   2.5690887290    1.4832640690    4.6081534370
  -2.5690887290    1.4832640690    4.6081534370
   0.0000000000   -2.9665281390    4.6081534370
 Li Nb O
 2 2 6
Cartesian
  -0.0049822611    0.0038195909    9.9252695200
   0.0057136113    0.0017709904    3.0130428500
   0.0014550803   -0.0016679304    0.0079826800
  -0.0019047604   -0.0010151802    6.9202133700
   1.5642986001   -0.1643062901    8.3321033502
  -0.9233808399   -1.2707184296    8.3305380499
  -0.6415153003    1.4366169101    8.3304076399
  -1.6459156701    0.2121626703    6.0261809498
   1.0054222600    1.3186052198    6.0279307902
   0.6416872204   -1.5295611898    6.0267028899
