
     Program PWSCF v.7.5 starts on 19Dec2025 at 17:24:37 

     This program is part of the open-source Quantum ESPRESSO suite
     for quantum simulation of materials; please cite
         "P. Giannozzi et al., J. Phys.:Condens. Matter 21 395502 (2009);
         "P. Giannozzi et al., J. Phys.:Condens. Matter 29 465901 (2017);
         "P. Giannozzi et al., J. Chem. Phys. 152 154105 (2020);
          URL http://www.quantum-espresso.org", 
     in publications or presentations arising from this work. More details at
     http://www.quantum-espresso.org/quote

     Parallel version (MPI), running on    96 processors

     MPI processes distributed on     1 nodes
     353472 MiB available memory on the printing compute node when the environment starts
 
     Reading input from scf.in
Warning: card &CELL ignored

     Current dimensions of program PWSCF are:
     Max number of different atomic species (ntypx) = 10
     Max number of k-points (npk) =  40000
     Max angular momentum in pseudopotentials (lmaxx) =  4
 
     K-points division:     npool     =       3
     R & G space division:  proc/nbgrp/npool/nimage =      32
     Subspace diagonalization in iterative solution of the eigenvalue problem:
     a serial algorithm will be used

 
     Parallelization info
     --------------------
     sticks:   dense  smooth     PW     G-vecs:    dense   smooth      PW
     Min          87      87     25                 2997     2997     451
     Max          88      88     26                 3001     3001     454
     Sum        2813    2813    803                96001    96001   14483
 
     Using Slab Decomposition
 


     bravais-lattice index     =            0
     lattice parameter (alat)  =      10.3566  a.u.
     unit-cell volume          =     711.0045 (a.u.)^3
     number of atoms/cell      =           10
     number of atomic types    =            3
     number of electrons       =        68.00
     number of Kohn-Sham states=           60
     kinetic-energy cutoff     =     100.0000  Ry
     charge density cutoff     =     400.0000  Ry
     scf convergence threshold =      1.0E-10
     mixing beta               =       0.7000
     number of iterations used =            8  plain     mixing
     Exchange-correlation= PBESOL
                           (   1   4  10   8   0   0   0)

     celldm(1)=  10.356556  celldm(2)=   0.000000  celldm(3)=   0.000000
     celldm(4)=   0.000000  celldm(5)=   0.000000  celldm(6)=   0.000000

     crystal axes: (cart. coord. in units of alat)
               a(1) = (   0.468773   0.270646   0.840834 )  
               a(2) = (  -0.468773   0.270646   0.840834 )  
               a(3) = (   0.000000  -0.541292   0.840834 )  

     reciprocal axes: (cart. coord. in units 2 pi/alat)
               b(1) = (  1.066614  0.615810  0.396432 )  
               b(2) = ( -1.066614  0.615810  0.396432 )  
               b(3) = (  0.000000 -1.231620  0.396432 )  


     PseudoPot. # 1 for Li read from file:
     ./Li.upf
     MD5 check sum: dc9f6e608df41cc7e5665a263ba47fe0
     Pseudo is Norm-conserving, Zval =  3.0
     Generated using ONCVPSP code by D. R. Hamann
     Using radial grid of 1944 points,  4 beta functions with: 
                l(1) =   0
                l(2) =   0
                l(3) =   1
                l(4) =   1

     PseudoPot. # 2 for Nb read from file:
     ./Nb.upf
     MD5 check sum: f0922cae2acd95e7020481ef16123e2a
     Pseudo is Norm-conserving + core correction, Zval = 13.0
     Generated using ONCVPSP code by D. R. Hamann
     Using radial grid of 1660 points,  6 beta functions with: 
                l(1) =   0
                l(2) =   0
                l(3) =   1
                l(4) =   1
                l(5) =   2
                l(6) =   2

     PseudoPot. # 3 for O  read from file:
     ./O.upf
     MD5 check sum: f226cbcd508cec715ff87a8f75a1dfba
     Pseudo is Norm-conserving + core correction, Zval =  6.0
     Generated using ONCVPSP code by D. R. Hamann
     Using radial grid of  936 points,  5 beta functions with: 
                l(1) =   0
                l(2) =   0
                l(3) =   1
                l(4) =   1
                l(5) =   2

     atomic species   valence    mass     pseudopotential
     Li                3.00     6.94100     Li( 1.00)
     Nb               13.00    92.90600     Nb( 1.00)
     O                 6.00    16.00000     O ( 1.00)

     No symmetry found



   Cartesian axes

     site n.     atom                  positions (alat units)
         1        Li     tau(   1) = (   0.0000149   0.0000326   1.8110314  )
         2        Li     tau(   2) = (  -0.0000035  -0.0000357   0.5497798  )
         3        Nb     tau(   3) = (   0.0000098  -0.0000289   0.0014561  )
         4        Nb     tau(   4) = (   0.0000229   0.0000201   1.2627077  )
         5        O      tau(   5) = (   0.2852884  -0.0299165   1.5201408  )
         6        O      tau(   6) = (  -0.1685956  -0.2322084   1.5200799  )
         7        O      tau(   7) = (  -0.1168234   0.2620220   1.5201797  )
         8        O      tau(   8) = (  -0.3002464   0.0385370   1.0997513  )
         9        O      tau(   9) = (   0.1834115   0.2408046   1.0997389  )
        10        O      tau(  10) = (   0.1167735  -0.2791872   1.0996587  )

     number of k points=   216  Gaussian smearing, width (Ry)=  0.0200

     Number of k-points >= 100: set verbosity='high' to print them.

     Dense  grid:    96001 G-vectors     FFT dimensions: (  72,  72,  72)

     Estimated max dynamical RAM per process >      35.27 MB

     Estimated total dynamical RAM >       3.26 GB

     Initial potential from superposition of free atoms

     starting charge      67.9863, renormalised to      68.0000
     Starting wfcs are   48 randomized atomic wfcs +   12 random wfcs

     total cpu time spent up to now is        5.5 secs

     Self-consistent Calculation

     iteration #  1     ecut=   100.00 Ry     beta= 0.70
     Davidson diagonalization with overlap
     ethr =  1.00E-02,  avg # of iterations =  5.5

     total cpu time spent up to now is       67.7 secs

     total energy              =    -474.18517448 Ry
     estimated scf accuracy    <       4.37921026 Ry

     iteration #  2     ecut=   100.00 Ry     beta= 0.70
     Davidson diagonalization with overlap
     ethr =  6.44E-03,  avg # of iterations =  2.0

     total cpu time spent up to now is       99.4 secs

     total energy              =    -472.17952237 Ry
     estimated scf accuracy    <      20.54237696 Ry

     iteration #  3     ecut=   100.00 Ry     beta= 0.70
     Davidson diagonalization with overlap
     ethr =  6.44E-03,  avg # of iterations =  2.0

     total cpu time spent up to now is      108.9 secs

     total energy              =    -476.45160399 Ry
     estimated scf accuracy    <       0.57304636 Ry

     iteration #  4     ecut=   100.00 Ry     beta= 0.70
     Davidson diagonalization with overlap
     ethr =  8.43E-04,  avg # of iterations =  1.0

     total cpu time spent up to now is      132.7 secs

     total energy              =    -476.34696013 Ry
     estimated scf accuracy    <       0.25903915 Ry

     iteration #  5     ecut=   100.00 Ry     beta= 0.70
     Davidson diagonalization with overlap
     ethr =  3.81E-04,  avg # of iterations =  1.2

     total cpu time spent up to now is      137.7 secs

     total energy              =    -476.39844801 Ry
     estimated scf accuracy    <       0.00258001 Ry

     iteration #  6     ecut=   100.00 Ry     beta= 0.70
     Davidson diagonalization with overlap
     ethr =  3.79E-06,  avg # of iterations =  7.1

     total cpu time spent up to now is      146.7 secs

     total energy              =    -476.39887119 Ry
     estimated scf accuracy    <       0.00024982 Ry

     iteration #  7     ecut=   100.00 Ry     beta= 0.70
     Davidson diagonalization with overlap
     ethr =  3.67E-07,  avg # of iterations =  1.0

     total cpu time spent up to now is      154.9 secs

     total energy              =    -476.39888636 Ry
     estimated scf accuracy    <       0.00006085 Ry

     iteration #  8     ecut=   100.00 Ry     beta= 0.70
     Davidson diagonalization with overlap
     ethr =  8.95E-08,  avg # of iterations =  1.0

     total cpu time spent up to now is      163.1 secs

     total energy              =    -476.39889374 Ry
     estimated scf accuracy    <       0.00000419 Ry

     iteration #  9     ecut=   100.00 Ry     beta= 0.70
     Davidson diagonalization with overlap
     ethr =  6.16E-09,  avg # of iterations =  2.0

     total cpu time spent up to now is      170.8 secs

     total energy              =    -476.39889502 Ry
     estimated scf accuracy    <       0.00000093 Ry

     iteration # 10     ecut=   100.00 Ry     beta= 0.70
     Davidson diagonalization with overlap
     ethr =  1.36E-09,  avg # of iterations =  1.0

     total cpu time spent up to now is      194.3 secs

     total energy              =    -476.39889496 Ry
     estimated scf accuracy    <       0.00000046 Ry

     iteration # 11     ecut=   100.00 Ry     beta= 0.70
     Davidson diagonalization with overlap
     ethr =  6.81E-10,  avg # of iterations =  1.0

     total cpu time spent up to now is      200.7 secs

     total energy              =    -476.39889499 Ry
     estimated scf accuracy    <       0.00000004 Ry

     iteration # 12     ecut=   100.00 Ry     beta= 0.70
     Davidson diagonalization with overlap
     ethr =  5.83E-11,  avg # of iterations =  1.9

     total cpu time spent up to now is      207.1 secs

     total energy              =    -476.39889500 Ry
     estimated scf accuracy    <          7.4E-09 Ry

     iteration # 13     ecut=   100.00 Ry     beta= 0.70
     Davidson diagonalization with overlap
     ethr =  1.08E-11,  avg # of iterations =  1.0

     total cpu time spent up to now is      215.5 secs

     End of self-consistent calculation

     Number of k-points >= 100: set verbosity='high' to print the bands.

     the Fermi energy is     9.2373 ev

!    total energy              =    -476.39889500 Ry
     estimated scf accuracy    <          7.8E-11 Ry
     smearing contrib. (-TS)   =      -0.00000000 Ry
     internal energy E=F+TS    =    -476.39889500 Ry

     The total energy is F=E-TS. E is the sum of the following terms:
     one-electron contribution =    -142.20041988 Ry
     hartree contribution      =     103.98570943 Ry
     xc contribution           =    -108.02122311 Ry
     ewald contribution        =    -330.16296143 Ry

     convergence has been achieved in  13 iterations

     Writing all to output data dir out/pwscf.save/ :
     XML data file, charge density, pseudopotentials, collected wavefunctions
 
     init_run     :      2.86s CPU      2.99s WALL (       1 calls)
     electrons    :    206.31s CPU    210.02s WALL (       1 calls)

     Called by init_run:
     wfcinit      :      2.65s CPU      2.73s WALL (       1 calls)
     potinit      :      0.02s CPU      0.03s WALL (       1 calls)
     hinit0       :      0.16s CPU      0.19s WALL (       1 calls)

     Called by electrons:
     c_bands      :    190.38s CPU    193.80s WALL (      13 calls)
     sum_band     :     15.24s CPU     15.48s WALL (      13 calls)
     v_of_rho     :      0.26s CPU      0.27s WALL (      14 calls)
     mix_rho      :      0.11s CPU      0.11s WALL (      13 calls)

     Called by c_bands:
     init_us_2    :      0.72s CPU      0.78s WALL (    1944 calls)
     cegterg      :     66.61s CPU     69.31s WALL (     936 calls)

     Called by *egterg:
     cdiaghg      :     10.31s CPU     10.55s WALL (    2943 calls)
     h_psi        :     52.17s CPU     54.47s WALL (    3015 calls)
     g_psi        :      0.08s CPU      0.08s WALL (    2007 calls)

     Called by h_psi:
     h_psi:calbec :      2.72s CPU      2.86s WALL (    3015 calls)
     vloc_psi     :     48.10s CPU     50.24s WALL (    3015 calls)
                                        0.00s GPU  (    3015 calls)
     add_vuspsi   :      1.21s CPU      1.24s WALL (    3015 calls)

     General routines
     calbec       :      2.71s CPU      2.85s WALL (    3015 calls)
     fft          :      0.07s CPU      0.10s WALL (     140 calls)
     ffts         :      0.10s CPU      0.10s WALL (      13 calls)
     fftw         :     52.37s CPU     54.55s WALL (  316874 calls)
 
     Parallel routines
 
     PWSCF        :   3m31.87s CPU   3m38.22s WALL

 
   This run was terminated on:  17:28:15  19Dec2025            

=------------------------------------------------------------------------------=
   JOB DONE.
=------------------------------------------------------------------------------=
