generated by RamanPy, mode 2 displacement 0.01
1.0
  15.0000000000    0.0000000000    0.0000000000
   0.0000000000   15.0000000000    0.0000000000
   0.0000000000    0.0000000000   25.0000000000
 N C H
 4 18 12
Cartesian
   8.6393229505    8.0000199900    7.6032145400
  11.3643453104    8.0000300100    7.6032473800
   8.5704507800    7.9999900200   12.4096560700
  11.4294707900    7.9999900000   12.4096552800
   9.2726317900    7.9999800100   11.2710898600
  10.7272805300    7.9999799900   11.2710796400
   9.2762259900    7.9999999900    8.8321991800
  10.7237171900    8.0000000200    8.8322245100
   8.5872702900    7.9999900100   10.0223480300
  11.4126543700    7.9999899900   10.0223911000
   9.2780202200    7.9999800100   13.5653817800
  10.7219210400    7.9999800000   13.5653667600
   9.2931424000    8.0000000200    6.3782521800
  10.7069027500    7.9999999600    6.3782440300
   8.5881999800    7.9999900200   14.8075698300
  11.4117705300    7.9999900100   14.8075411000
   8.6037613400    7.9999899900    5.1627696000
  11.3963350400    8.0000000200    5.1627912800
   9.2900691200    7.9999999800   15.9936206700
  10.7099500000    8.0000000100   15.9935987700
   9.3020394800    7.9999900200    3.9518520000
  10.6980989300    8.0000000100    3.9518880600
   7.4959026400    8.0000000100   10.0408240500
  12.5040762400    8.0000100000   10.0408598400
   7.6160494080    8.0000301700    7.6012260800
  12.3704095485    8.0000298900    7.6013581600
   7.4978100400    8.0000100600   14.7821501400
  12.5021689500    7.9999999500   14.7820798200
   7.5117431100    7.9999999700    5.1707035900
  12.4884271900    8.0000100100    5.1707918900
   8.7540906000    8.0000100000   16.9436688000
  11.2459406700    8.0000099900   16.9436509000
   8.7503936500    7.9999999700    3.0121550500
  11.2497534300    8.0000100000    3.0021450600
