
     Program PWSCF v.7.5 starts on 19Dec2025 at 17:40: 2 

     This program is part of the open-source Quantum ESPRESSO suite
     for quantum simulation of materials; please cite
         "P. Giannozzi et al., J. Phys.:Condens. Matter 21 395502 (2009);
         "P. Giannozzi et al., J. Phys.:Condens. Matter 29 465901 (2017);
         "P. Giannozzi et al., J. Chem. Phys. 152 154105 (2020);
          URL http://www.quantum-espresso.org", 
     in publications or presentations arising from this work. More details at
     http://www.quantum-espresso.org/quote

     Parallel version (MPI), running on    96 processors

     MPI processes distributed on     1 nodes
     352540 MiB available memory on the printing compute node when the environment starts
 
     Reading input from scf.in
Warning: card &CELL ignored

     Current dimensions of program PWSCF are:
     Max number of different atomic species (ntypx) = 10
     Max number of k-points (npk) =  40000
     Max angular momentum in pseudopotentials (lmaxx) =  4
 
     K-points division:     npool     =       3
     R & G space division:  proc/nbgrp/npool/nimage =      32
     Subspace diagonalization in iterative solution of the eigenvalue problem:
     a serial algorithm will be used

 
     Parallelization info
     --------------------
     sticks:   dense  smooth     PW     G-vecs:    dense   smooth      PW
     Min          87      87     25                 2997     2997     451
     Max          88      88     26                 3001     3001     454
     Sum        2813    2813    803                96001    96001   14483
 
     Using Slab Decomposition
 


     bravais-lattice index     =            0
     lattice parameter (alat)  =      10.3566  a.u.
     unit-cell volume          =     711.0045 (a.u.)^3
     number of atoms/cell      =           10
     number of atomic types    =            3
     number of electrons       =        68.00
     number of Kohn-Sham states=           60
     kinetic-energy cutoff     =     100.0000  Ry
     charge density cutoff     =     400.0000  Ry
     scf convergence threshold =      1.0E-10
     mixing beta               =       0.7000
     number of iterations used =            8  plain     mixing
     Exchange-correlation= PBESOL
                           (   1   4  10   8   0   0   0)

     celldm(1)=  10.356556  celldm(2)=   0.000000  celldm(3)=   0.000000
     celldm(4)=   0.000000  celldm(5)=   0.000000  celldm(6)=   0.000000

     crystal axes: (cart. coord. in units of alat)
               a(1) = (   0.468773   0.270646   0.840834 )  
               a(2) = (  -0.468773   0.270646   0.840834 )  
               a(3) = (   0.000000  -0.541292   0.840834 )  

     reciprocal axes: (cart. coord. in units 2 pi/alat)
               b(1) = (  1.066614  0.615810  0.396432 )  
               b(2) = ( -1.066614  0.615810  0.396432 )  
               b(3) = (  0.000000 -1.231620  0.396432 )  


     PseudoPot. # 1 for Li read from file:
     ./Li.upf
     MD5 check sum: dc9f6e608df41cc7e5665a263ba47fe0
     Pseudo is Norm-conserving, Zval =  3.0
     Generated using ONCVPSP code by D. R. Hamann
     Using radial grid of 1944 points,  4 beta functions with: 
                l(1) =   0
                l(2) =   0
                l(3) =   1
                l(4) =   1

     PseudoPot. # 2 for Nb read from file:
     ./Nb.upf
     MD5 check sum: f0922cae2acd95e7020481ef16123e2a
     Pseudo is Norm-conserving + core correction, Zval = 13.0
     Generated using ONCVPSP code by D. R. Hamann
     Using radial grid of 1660 points,  6 beta functions with: 
                l(1) =   0
                l(2) =   0
                l(3) =   1
                l(4) =   1
                l(5) =   2
                l(6) =   2

     PseudoPot. # 3 for O  read from file:
     ./O.upf
     MD5 check sum: f226cbcd508cec715ff87a8f75a1dfba
     Pseudo is Norm-conserving + core correction, Zval =  6.0
     Generated using ONCVPSP code by D. R. Hamann
     Using radial grid of  936 points,  5 beta functions with: 
                l(1) =   0
                l(2) =   0
                l(3) =   1
                l(4) =   1
                l(5) =   2

     atomic species   valence    mass     pseudopotential
     Li                3.00     6.94100     Li( 1.00)
     Nb               13.00    92.90600     Nb( 1.00)
     O                 6.00    16.00000     O ( 1.00)

     No symmetry found



   Cartesian axes

     site n.     atom                  positions (alat units)
         1        Li     tau(   1) = (   0.0000003  -0.0000006   1.8109335  )
         2        Li     tau(   2) = (   0.0000004   0.0000006   0.5498774  )
         3        Nb     tau(   3) = (  -0.0000001  -0.0000000   0.0014429  )
         4        Nb     tau(   4) = (  -0.0000001   0.0000000   1.2627209  )
         5        O      tau(   5) = (   0.2853489  -0.0298454   1.5201560  )
         6        O      tau(   6) = (  -0.1685213  -0.2321968   1.5201559  )
         7        O      tau(   7) = (  -0.1168275   0.2620420   1.5201560  )
         8        O      tau(   8) = (  -0.3001916   0.0385096   1.0996939  )
         9        O      tau(   9) = (   0.1834460   0.2407188   1.0996937  )
        10        O      tau(  10) = (   0.1167457  -0.2792281   1.0996937  )

     number of k points=   216  Gaussian smearing, width (Ry)=  0.0200

     Number of k-points >= 100: set verbosity='high' to print them.

     Dense  grid:    96001 G-vectors     FFT dimensions: (  72,  72,  72)

     Estimated max dynamical RAM per process >      35.27 MB

     Estimated total dynamical RAM >       3.26 GB

     Initial potential from superposition of free atoms

     starting charge      67.9863, renormalised to      68.0000
     Starting wfcs are   48 randomized atomic wfcs +   12 random wfcs

     total cpu time spent up to now is       10.8 secs

     Self-consistent Calculation

     iteration #  1     ecut=   100.00 Ry     beta= 0.70
     Davidson diagonalization with overlap
     ethr =  1.00E-02,  avg # of iterations =  5.5

     total cpu time spent up to now is       25.6 secs

     total energy              =    -474.18517295 Ry
     estimated scf accuracy    <       4.37921189 Ry

     iteration #  2     ecut=   100.00 Ry     beta= 0.70
     Davidson diagonalization with overlap
     ethr =  6.44E-03,  avg # of iterations =  2.0

     total cpu time spent up to now is       31.2 secs

     total energy              =    -472.17951902 Ry
     estimated scf accuracy    <      20.54239887 Ry

     iteration #  3     ecut=   100.00 Ry     beta= 0.70
     Davidson diagonalization with overlap
     ethr =  6.44E-03,  avg # of iterations =  2.0

     total cpu time spent up to now is       36.3 secs

     total energy              =    -476.45160400 Ry
     estimated scf accuracy    <       0.57304678 Ry

     iteration #  4     ecut=   100.00 Ry     beta= 0.70
     Davidson diagonalization with overlap
     ethr =  8.43E-04,  avg # of iterations =  1.0

     total cpu time spent up to now is       40.7 secs

     total energy              =    -476.34696228 Ry
     estimated scf accuracy    <       0.25904006 Ry

     iteration #  5     ecut=   100.00 Ry     beta= 0.70
     Davidson diagonalization with overlap
     ethr =  3.81E-04,  avg # of iterations =  1.2

     total cpu time spent up to now is       45.1 secs

     total energy              =    -476.39844864 Ry
     estimated scf accuracy    <       0.00258246 Ry

     iteration #  6     ecut=   100.00 Ry     beta= 0.70
     Davidson diagonalization with overlap
     ethr =  3.80E-06,  avg # of iterations =  7.1

     total cpu time spent up to now is       53.7 secs

     total energy              =    -476.39886933 Ry
     estimated scf accuracy    <       0.00029057 Ry

     iteration #  7     ecut=   100.00 Ry     beta= 0.70
     Davidson diagonalization with overlap
     ethr =  4.27E-07,  avg # of iterations =  1.0

     total cpu time spent up to now is       58.2 secs

     total energy              =    -476.39887415 Ry
     estimated scf accuracy    <       0.00015500 Ry

     iteration #  8     ecut=   100.00 Ry     beta= 0.70
     Davidson diagonalization with overlap
     ethr =  2.28E-07,  avg # of iterations =  1.0

     total cpu time spent up to now is       62.5 secs

     total energy              =    -476.39889336 Ry
     estimated scf accuracy    <       0.00000562 Ry

     iteration #  9     ecut=   100.00 Ry     beta= 0.70
     Davidson diagonalization with overlap
     ethr =  8.26E-09,  avg # of iterations =  2.0

     total cpu time spent up to now is       67.8 secs

     total energy              =    -476.39889488 Ry
     estimated scf accuracy    <       0.00000082 Ry

     iteration # 10     ecut=   100.00 Ry     beta= 0.70
     Davidson diagonalization with overlap
     ethr =  1.21E-09,  avg # of iterations =  1.0

     total cpu time spent up to now is       72.1 secs

     total energy              =    -476.39889488 Ry
     estimated scf accuracy    <       0.00000044 Ry

     iteration # 11     ecut=   100.00 Ry     beta= 0.70
     Davidson diagonalization with overlap
     ethr =  6.45E-10,  avg # of iterations =  1.0

     total cpu time spent up to now is       76.4 secs

     total energy              =    -476.39889492 Ry
     estimated scf accuracy    <       0.00000002 Ry

     iteration # 12     ecut=   100.00 Ry     beta= 0.70
     Davidson diagonalization with overlap
     ethr =  3.11E-11,  avg # of iterations =  2.0

     total cpu time spent up to now is       81.3 secs

     total energy              =    -476.39889492 Ry
     estimated scf accuracy    <          2.9E-09 Ry

     iteration # 13     ecut=   100.00 Ry     beta= 0.70
     Davidson diagonalization with overlap
     ethr =  4.26E-12,  avg # of iterations =  1.1

     total cpu time spent up to now is       85.6 secs

     End of self-consistent calculation

     Number of k-points >= 100: set verbosity='high' to print the bands.

     the Fermi energy is     9.2373 ev

!    total energy              =    -476.39889493 Ry
     estimated scf accuracy    <          9.7E-11 Ry
     smearing contrib. (-TS)   =      -0.00000000 Ry
     internal energy E=F+TS    =    -476.39889493 Ry

     The total energy is F=E-TS. E is the sum of the following terms:
     one-electron contribution =    -142.20042367 Ry
     hartree contribution      =     103.98570707 Ry
     xc contribution           =    -108.02122141 Ry
     ewald contribution        =    -330.16295692 Ry

     convergence has been achieved in  13 iterations

     Writing all to output data dir out/pwscf.save/ :
     XML data file, charge density, pseudopotentials, collected wavefunctions
 
     init_run     :      1.70s CPU      1.88s WALL (       1 calls)
     electrons    :     73.43s CPU     74.89s WALL (       1 calls)

     Called by init_run:
     wfcinit      :      1.57s CPU      1.63s WALL (       1 calls)
     potinit      :      0.02s CPU      0.03s WALL (       1 calls)
     hinit0       :      0.09s CPU      0.18s WALL (       1 calls)

     Called by electrons:
     c_bands      :     64.13s CPU     65.36s WALL (      13 calls)
     sum_band     :      9.17s CPU      9.34s WALL (      13 calls)
     v_of_rho     :      0.11s CPU      0.13s WALL (      14 calls)
     mix_rho      :      0.02s CPU      0.02s WALL (      13 calls)

     Called by c_bands:
     init_us_2    :      0.74s CPU      0.82s WALL (    1944 calls)
     cegterg      :     54.60s CPU     55.58s WALL (     936 calls)

     Called by *egterg:
     cdiaghg      :     10.34s CPU     10.43s WALL (    2953 calls)
     h_psi        :     40.42s CPU     41.31s WALL (    3025 calls)
     g_psi        :      0.08s CPU      0.08s WALL (    2017 calls)

     Called by h_psi:
     h_psi:calbec :      1.96s CPU      2.01s WALL (    3025 calls)
     vloc_psi     :     37.05s CPU     37.85s WALL (    3025 calls)
                                        0.00s GPU  (    3025 calls)
     add_vuspsi   :      1.26s CPU      1.29s WALL (    3025 calls)

     General routines
     calbec       :      1.95s CPU      2.01s WALL (    3025 calls)
     fft          :      0.05s CPU      0.16s WALL (     140 calls)
     ffts         :      0.01s CPU      0.01s WALL (      13 calls)
     fftw         :     39.69s CPU     40.49s WALL (  317870 calls)
 
     Parallel routines
 
     PWSCF        :   1m24.48s CPU   1m28.64s WALL

 
   This run was terminated on:  17:41:31  19Dec2025            

=------------------------------------------------------------------------------=
   JOB DONE.
=------------------------------------------------------------------------------=
