generated by RamanPy, mode 46 displacement 0.01
1.0
  15.0000000000    0.0000000000    0.0000000000
   0.0000000000   15.0000000000    0.0000000000
   0.0000000000    0.0000000000   25.0000000000
 N C H
 4 18 12
Cartesian
   8.6372836400    8.0000199800    7.6032514800
  11.3627208800    8.0000303900    7.6032907700
   8.5706502599    7.9999898400   12.4095184500
  11.4292721801    7.9999901400   12.4095072000
   9.2728767399    7.9999800200   11.2708895901
  10.7270320001    7.9999799500   11.2708982701
   9.2762016100    8.0000000200    8.8322036200
  10.7237578500    7.9999997500    8.8322148400
   8.5872770000    7.9999905700   10.0223162700
  11.4126646600    7.9999901400   10.0223385400
   9.2772545603    7.9999797100   13.5657129299
  10.7226833097    7.9999801600   13.5657011799
   9.2931440900    8.0000002600    6.3782702900
  10.7069320300    7.9999996000    6.3782774500
   8.5902419693    7.9999890600   14.8090795395
  11.4097289407    7.9999922700   14.8090473495
   8.6037349900    7.9999895000    5.1627726900
  11.3963655800    8.0000012600    5.1628048800
   9.2937588388    8.0000037200   15.9909657809
  10.7062620912    7.9999965000   15.9909460809
   9.3020155300    7.9999922100    3.9518210000
  10.6981236400    7.9999973700    3.9518409400
   7.4958835000    7.9999988100   10.0409467900
  12.5040569300    8.0000091700   10.0410103100
   7.6236964300    8.0000302800    7.6012725900
  12.3763020100    8.0000297300    7.6013662300
   7.4983911198    8.0000125000   14.7862360786
  12.5015893802    7.9999943500   14.7861624886
   7.5117090500    8.0000013500    5.1707422400
  12.4884181900    8.0000091700    5.1707928600
   8.7563153592    7.9999998100   16.9434511201
  11.2437109308    8.0000185700   16.9434332601
   8.7503905800    7.9999954700    3.0121333800
  11.2497663500    8.0000151300    3.0021427800
