generated by RamanPy, mode 94 displacement -0.01
1.0
  15.0000000000    0.0000000000    0.0000000000
   0.0000000000   15.0000000000    0.0000000000
   0.0000000000    0.0000000000   25.0000000000
 N C H
 4 18 12
Cartesian
   8.6372614400    8.0036110596    7.6032119700
  11.3627510800    8.0036648196    7.6032516500
   8.5704517800    7.9971501303   12.4096589200
  11.4294699900    7.9972217003   12.4096524000
   9.2726323800    7.9974777903   11.2710796100
  10.7272819400    7.9975017303   11.2710911400
   9.2762319800    8.0006230299    8.8322107700
  10.7237316100    8.0006419799    8.8322215100
   8.5872820900    7.9984713702   10.0223601900
  11.4126620700    7.9985065502   10.0223812600
   9.2780194300    7.9983605902   13.5653797900
  10.7219191000    7.9984057202   13.5653714500
   9.2931506300    8.0016905898    6.3782424800
  10.7069204300    8.0017167698    6.3782520900
   8.5881965000    8.0003938000   14.8075680600
  11.4117664900    8.0005052799   14.8075425400
   8.6037696800    8.0000881600    5.1627633000
  11.3963398100    8.0001624800    5.1628018100
   9.2900640300    8.0029532897   15.9936193400
  10.7099441600    8.0030155897   15.9936012000
   9.3020387200    7.9985300601    3.9518626100
  10.6980991700    7.9985767601    3.9518819500
   7.4958806000    7.9995650400   10.0408102100
  12.5040606000    7.9995944300   10.0408703500
   7.6236904500    8.0008081099    7.6012507300
  12.3763102000    8.0008310899    7.6013403900
   7.4978089900    8.0001266400   14.7821487200
  12.5021690000    8.0001736600   14.7820814200
   7.5117198800    7.9999979900    5.1707214100
  12.4884099500    8.0000411400    5.1707804600
   8.7540879000    8.0014462099   16.9436696500
  11.2459378500    8.0014796398   16.9436506400
   8.7503893200    7.9992053101    3.0121508900
  11.2497497300    7.9992339201    3.0021504800
