generated by RamanPy, mode 17 displacement -0.01
1.0
  15.0000000000    0.0000000000    0.0000000000
   0.0000000000   15.0000000000    0.0000000000
   0.0000000000    0.0000000000   25.0000000000
 N C H
 4 18 12
Cartesian
   8.6367962801    8.0000199700    7.6052990695
  11.3632135599    8.0000299800    7.6053406595
   8.5698481602    7.9999899800   12.4090151102
  11.4300722398    7.9999899900   12.4090040902
   9.2741625596    7.9999798900   11.2712638700
  10.7257466604    7.9999799600   11.2712752000
   9.2793948692    8.0000000200    8.8289475708
  10.7205643208    8.0000001700    8.8289538008
   8.5854073205    7.9999900900   10.0247339894
  11.4145344095    7.9999900400   10.0247555194
   9.2793595597    7.9999798800   13.5658889599
  10.7205790903    7.9999799300   13.5658782799
   9.2948038996    7.9999998900    6.3776638101
  10.7052672504    8.0000000900    6.3776708502
   8.5876697201    7.9999899500   14.8069420602
  11.4123001899    7.9999899700   14.8069150202
   8.6032594601    7.9999900700    5.1629411400
  11.3968507199    7.9999999100    5.1629845600
   9.2910245198    8.0000001400   15.9941104699
  10.7089965402    7.9999999400   15.9940883899
   9.3031771297    7.9999899400    3.9515406601
  10.6969618703    7.9999999300    3.9515586201
   7.4952490002    8.0000000100   10.0403463201
  12.5046913198    8.0000102000   10.0404054701
   7.6236071900    8.0000298300    7.5995749104
  12.3763929200    8.0000300200    7.5996623304
   7.4976411900    8.0000097600   14.7824289199
  12.5023384700    7.9999998100   14.7823582699
   7.5115622000    8.0000000000    5.1706587800
  12.4885677200    8.0000098800    5.1707183800
   8.7538683701    8.0000098900   16.9435411600
  11.2461604099    8.0000101900   16.9435213200
   8.7501013301    7.9999999800    3.0124308799
  11.2500401399    8.0000098500    3.0024314099
