
     Program PWSCF v.7.5 starts on 19Dec2025 at 16:59:18 

     This program is part of the open-source Quantum ESPRESSO suite
     for quantum simulation of materials; please cite
         "P. Giannozzi et al., J. Phys.:Condens. Matter 21 395502 (2009);
         "P. Giannozzi et al., J. Phys.:Condens. Matter 29 465901 (2017);
         "P. Giannozzi et al., J. Chem. Phys. 152 154105 (2020);
          URL http://www.quantum-espresso.org", 
     in publications or presentations arising from this work. More details at
     http://www.quantum-espresso.org/quote

     Parallel version (MPI), running on    96 processors

     MPI processes distributed on     1 nodes
     351178 MiB available memory on the printing compute node when the environment starts
 
     Reading input from scf.in
Warning: card &CELL ignored

     Current dimensions of program PWSCF are:
     Max number of different atomic species (ntypx) = 10
     Max number of k-points (npk) =  40000
     Max angular momentum in pseudopotentials (lmaxx) =  4
 
     K-points division:     npool     =       3
     R & G space division:  proc/nbgrp/npool/nimage =      32
     Subspace diagonalization in iterative solution of the eigenvalue problem:
     a serial algorithm will be used

 
     Parallelization info
     --------------------
     sticks:   dense  smooth     PW     G-vecs:    dense   smooth      PW
     Min          87      87     25                 2997     2997     451
     Max          88      88     26                 3001     3001     454
     Sum        2813    2813    803                96001    96001   14483
 
     Using Slab Decomposition
 


     bravais-lattice index     =            0
     lattice parameter (alat)  =      10.3566  a.u.
     unit-cell volume          =     711.0045 (a.u.)^3
     number of atoms/cell      =           10
     number of atomic types    =            3
     number of electrons       =        68.00
     number of Kohn-Sham states=           60
     kinetic-energy cutoff     =     100.0000  Ry
     charge density cutoff     =     400.0000  Ry
     scf convergence threshold =      1.0E-10
     mixing beta               =       0.7000
     number of iterations used =            8  plain     mixing
     Exchange-correlation= PBESOL
                           (   1   4  10   8   0   0   0)

     celldm(1)=  10.356556  celldm(2)=   0.000000  celldm(3)=   0.000000
     celldm(4)=   0.000000  celldm(5)=   0.000000  celldm(6)=   0.000000

     crystal axes: (cart. coord. in units of alat)
               a(1) = (   0.468773   0.270646   0.840834 )  
               a(2) = (  -0.468773   0.270646   0.840834 )  
               a(3) = (   0.000000  -0.541292   0.840834 )  

     reciprocal axes: (cart. coord. in units 2 pi/alat)
               b(1) = (  1.066614  0.615810  0.396432 )  
               b(2) = ( -1.066614  0.615810  0.396432 )  
               b(3) = (  0.000000 -1.231620  0.396432 )  


     PseudoPot. # 1 for Li read from file:
     ./Li.upf
     MD5 check sum: dc9f6e608df41cc7e5665a263ba47fe0
     Pseudo is Norm-conserving, Zval =  3.0
     Generated using ONCVPSP code by D. R. Hamann
     Using radial grid of 1944 points,  4 beta functions with: 
                l(1) =   0
                l(2) =   0
                l(3) =   1
                l(4) =   1

     PseudoPot. # 2 for Nb read from file:
     ./Nb.upf
     MD5 check sum: f0922cae2acd95e7020481ef16123e2a
     Pseudo is Norm-conserving + core correction, Zval = 13.0
     Generated using ONCVPSP code by D. R. Hamann
     Using radial grid of 1660 points,  6 beta functions with: 
                l(1) =   0
                l(2) =   0
                l(3) =   1
                l(4) =   1
                l(5) =   2
                l(6) =   2

     PseudoPot. # 3 for O  read from file:
     ./O.upf
     MD5 check sum: f226cbcd508cec715ff87a8f75a1dfba
     Pseudo is Norm-conserving + core correction, Zval =  6.0
     Generated using ONCVPSP code by D. R. Hamann
     Using radial grid of  936 points,  5 beta functions with: 
                l(1) =   0
                l(2) =   0
                l(3) =   1
                l(4) =   1
                l(5) =   2

     atomic species   valence    mass     pseudopotential
     Li                3.00     6.94100     Li( 1.00)
     Nb               13.00    92.90600     Nb( 1.00)
     O                 6.00    16.00000     O ( 1.00)

     No symmetry found



   Cartesian axes

     site n.     atom                  positions (alat units)
         1        Li     tau(   1) = (   0.0000004   0.0000005   1.8110884  )
         2        Li     tau(   2) = (   0.0000004   0.0000005   0.5498369  )
         3        Nb     tau(   3) = (   0.0000004   0.0000005   0.0015139  )
         4        Nb     tau(   4) = (   0.0000004   0.0000005   1.2627655  )
         5        O      tau(   5) = (   0.2853384  -0.0298859   1.5201913  )
         6        O      tau(   6) = (  -0.1685510  -0.2321664   1.5201913  )
         7        O      tau(   7) = (  -0.1167863   0.2620536   1.5201913  )
         8        O      tau(   8) = (  -0.3002213   0.0384799   1.0997741  )
         9        O      tau(   9) = (   0.1834354   0.2407604   1.0997741  )
        10        O      tau(  10) = (   0.1167871  -0.2792389   1.0997741  )

     number of k points=   216  Gaussian smearing, width (Ry)=  0.0200

     Number of k-points >= 100: set verbosity='high' to print them.

     Dense  grid:    96001 G-vectors     FFT dimensions: (  72,  72,  72)

     Estimated max dynamical RAM per process >      35.27 MB

     Estimated total dynamical RAM >       3.26 GB

     Initial potential from superposition of free atoms

     starting charge      67.9863, renormalised to      68.0000
     Starting wfcs are   48 randomized atomic wfcs +   12 random wfcs

     total cpu time spent up to now is        4.7 secs

     Self-consistent Calculation

     iteration #  1     ecut=   100.00 Ry     beta= 0.70
     Davidson diagonalization with overlap
     ethr =  1.00E-02,  avg # of iterations =  5.5

     total cpu time spent up to now is       49.4 secs

     total energy              =    -474.18517298 Ry
     estimated scf accuracy    <       4.37921193 Ry

     iteration #  2     ecut=   100.00 Ry     beta= 0.70
     Davidson diagonalization with overlap
     ethr =  6.44E-03,  avg # of iterations =  2.0

     total cpu time spent up to now is      134.7 secs

     total energy              =    -472.17951713 Ry
     estimated scf accuracy    <      20.54240973 Ry

     iteration #  3     ecut=   100.00 Ry     beta= 0.70
     Davidson diagonalization with overlap
     ethr =  6.44E-03,  avg # of iterations =  2.0

     total cpu time spent up to now is      144.9 secs

     total energy              =    -476.45160401 Ry
     estimated scf accuracy    <       0.57304656 Ry

     iteration #  4     ecut=   100.00 Ry     beta= 0.70
     Davidson diagonalization with overlap
     ethr =  8.43E-04,  avg # of iterations =  1.0

     total cpu time spent up to now is      150.9 secs

     total energy              =    -476.34695825 Ry
     estimated scf accuracy    <       0.25903901 Ry

     iteration #  5     ecut=   100.00 Ry     beta= 0.70
     Davidson diagonalization with overlap
     ethr =  3.81E-04,  avg # of iterations =  1.2

     total cpu time spent up to now is      159.3 secs

     total energy              =    -476.39844742 Ry
     estimated scf accuracy    <       0.00257952 Ry

     iteration #  6     ecut=   100.00 Ry     beta= 0.70
     Davidson diagonalization with overlap
     ethr =  3.79E-06,  avg # of iterations =  7.1

     total cpu time spent up to now is      173.1 secs

     total energy              =    -476.39886986 Ry
     estimated scf accuracy    <       0.00023723 Ry

     iteration #  7     ecut=   100.00 Ry     beta= 0.70
     Davidson diagonalization with overlap
     ethr =  3.49E-07,  avg # of iterations =  1.0

     total cpu time spent up to now is      181.6 secs

     total energy              =    -476.39889166 Ry
     estimated scf accuracy    <       0.00001593 Ry

     iteration #  8     ecut=   100.00 Ry     beta= 0.70
     Davidson diagonalization with overlap
     ethr =  2.34E-08,  avg # of iterations =  1.7

     total cpu time spent up to now is      187.0 secs

     total energy              =    -476.39889405 Ry
     estimated scf accuracy    <       0.00000563 Ry

     iteration #  9     ecut=   100.00 Ry     beta= 0.70
     Davidson diagonalization with overlap
     ethr =  8.28E-09,  avg # of iterations =  1.0

     total cpu time spent up to now is      195.3 secs

     total energy              =    -476.39889507 Ry
     estimated scf accuracy    <       0.00000070 Ry

     iteration # 10     ecut=   100.00 Ry     beta= 0.70
     Davidson diagonalization with overlap
     ethr =  1.03E-09,  avg # of iterations =  1.0

     total cpu time spent up to now is      210.1 secs

     total energy              =    -476.39889503 Ry
     estimated scf accuracy    <       0.00000024 Ry

     iteration # 11     ecut=   100.00 Ry     beta= 0.70
     Davidson diagonalization with overlap
     ethr =  3.51E-10,  avg # of iterations =  1.0

     total cpu time spent up to now is      218.5 secs

     total energy              =    -476.39889505 Ry
     estimated scf accuracy    <       0.00000002 Ry

     iteration # 12     ecut=   100.00 Ry     beta= 0.70
     Davidson diagonalization with overlap
     ethr =  3.34E-11,  avg # of iterations =  1.1

     total cpu time spent up to now is      222.9 secs

     total energy              =    -476.39889505 Ry
     estimated scf accuracy    <          6.4E-10 Ry

     iteration # 13     ecut=   100.00 Ry     beta= 0.70
     Davidson diagonalization with overlap
     ethr =  9.35E-13,  avg # of iterations =  2.0

     total cpu time spent up to now is      231.9 secs

     total energy              =    -476.39889505 Ry
     estimated scf accuracy    <          1.7E-10 Ry

     iteration # 14     ecut=   100.00 Ry     beta= 0.70
     Davidson diagonalization with overlap
     ethr =  2.53E-13,  avg # of iterations =  1.0

     total cpu time spent up to now is      240.4 secs

     End of self-consistent calculation

     Number of k-points >= 100: set verbosity='high' to print the bands.

     the Fermi energy is     9.2369 ev

!    total energy              =    -476.39889505 Ry
     estimated scf accuracy    <          7.2E-12 Ry
     smearing contrib. (-TS)   =      -0.00000000 Ry
     internal energy E=F+TS    =    -476.39889505 Ry

     The total energy is F=E-TS. E is the sum of the following terms:
     one-electron contribution =    -142.20037349 Ry
     hartree contribution      =     103.98566577 Ry
     xc contribution           =    -108.02121900 Ry
     ewald contribution        =    -330.16296834 Ry

     convergence has been achieved in  14 iterations

     Writing all to output data dir out/pwscf.save/ :
     XML data file, charge density, pseudopotentials, collected wavefunctions
 
     init_run     :      2.80s CPU      2.98s WALL (       1 calls)
     electrons    :    233.61s CPU    235.88s WALL (       1 calls)

     Called by init_run:
     wfcinit      :      2.60s CPU      2.66s WALL (       1 calls)
     potinit      :      0.02s CPU      0.03s WALL (       1 calls)
     hinit0       :      0.13s CPU      0.22s WALL (       1 calls)

     Called by electrons:
     c_bands      :    186.13s CPU    187.73s WALL (      14 calls)
     sum_band     :     46.42s CPU     46.99s WALL (      14 calls)
     v_of_rho     :      0.64s CPU      0.65s WALL (      15 calls)
     mix_rho      :      0.08s CPU      0.08s WALL (      14 calls)

     Called by c_bands:
     init_us_2    :      0.79s CPU      0.82s WALL (    2088 calls)
     cegterg      :    125.61s CPU    126.80s WALL (    1008 calls)

     Called by *egterg:
     cdiaghg      :     10.98s CPU     11.07s WALL (    3081 calls)
     h_psi        :    105.42s CPU    106.49s WALL (    3153 calls)
     g_psi        :      0.09s CPU      0.09s WALL (    2073 calls)

     Called by h_psi:
     h_psi:calbec :      4.87s CPU      4.94s WALL (    3153 calls)
     vloc_psi     :     99.09s CPU    100.07s WALL (    3153 calls)
                                        0.00s GPU  (    3153 calls)
     add_vuspsi   :      1.32s CPU      1.34s WALL (    3153 calls)

     General routines
     calbec       :      4.86s CPU      4.93s WALL (    3153 calls)
     fft          :      0.28s CPU      0.37s WALL (     150 calls)
     ffts         :      0.10s CPU      0.10s WALL (      14 calls)
     fftw         :    106.69s CPU    107.74s WALL (  338688 calls)
 
     Parallel routines
 
     PWSCF        :   3m58.64s CPU   4m 3.11s WALL

 
   This run was terminated on:  17: 3:21  19Dec2025            

=------------------------------------------------------------------------------=
   JOB DONE.
=------------------------------------------------------------------------------=
