generated by RamanPy, mode 63 displacement -0.01
1.0
  15.0000000000    0.0000000000    0.0000000000
   0.0000000000   15.0000000000    0.0000000000
   0.0000000000    0.0000000000   25.0000000000
 N C H
 4 18 12
Cartesian
   8.6377983096    8.0001288499    7.6032302400
  11.3621869604    7.9999211701    7.6032845800
   8.5704194400    7.9994176304   12.4095624801
  11.4295262900    8.0005618496   12.4095629501
   9.2726999400    8.0041405671   11.2710163700
  10.7272037801    7.9958196829   11.2710514700
   9.2764989498    8.0006447596    8.8321140001
  10.7234681802    7.9993531504    8.8321549800
   8.5876701097    7.9999715900   10.0221804501
  11.4122720503    8.0000121500   10.0222487301
   9.2779353401    7.9969956821   13.5653833000
  10.7220157599    8.0029641179   13.5653675200
   9.2933435699    8.0013349291    6.3783424199
  10.7067117701    7.9986660909    6.3783409799
   8.5880441801    8.0011634792   14.8076664199
  11.4119230199    7.9988133108   14.8076159699
   8.6041798797    7.9996862402    5.1629185899
  11.3959332903    8.0003009298    5.1629349599
   9.2900413300    7.9980929713   15.9936721700
  10.7099650400    8.0019094187   15.9936205700
   9.3020746100    8.0006094096    3.9518302700
  10.6980825900    7.9993801704    3.9518122700
   7.4959942099    7.9968527922   10.0406845801
  12.5039462201    8.0031543478   10.0407663201
   7.6238365499    7.9994331704    7.6012716900
  12.3761568801    8.0006244596    7.6013618000
   7.4977628100    8.0020013886   14.7822107200
  12.5022163900    7.9980078714   14.7821410900
   7.5118406099    7.9992535105    5.1708167599
  12.4882904801    8.0007598895    5.1708778099
   8.7541155700    7.9998576401   16.9437054300
  11.2459206600    8.0001608699   16.9436707100
   8.7502996001    7.9999794200    3.0122021500
  11.2498336299    8.0000318600    3.0021844200
