generated by RamanPy, mode 31 displacement 0.01
1.0
  15.0000000000    0.0000000000    0.0000000000
   0.0000000000   15.0000000000    0.0000000000
   0.0000000000    0.0000000000   25.0000000000
 N C H
 4 18 12
Cartesian
   8.6363482201    8.0000201300    7.6034219600
  11.3636676799    8.0000300100    7.6034610000
   8.5692020002    7.9999899500   12.4111400198
  11.4307194398    7.9999898600   12.4111321598
   9.2721035201    7.9999804200   11.2669172506
  10.7278022099    7.9999798500   11.2669314806
   9.2774580398    8.0000000300    8.8340700597
  10.7224941802    7.9999999300    8.8340776997
   8.5885459298    7.9999900100   10.0230851699
  11.4114003902    7.9999903000   10.0231010499
   9.2786650999    7.9999797600   13.5662395699
  10.7212742301    7.9999799100   13.5662286699
   9.2948161098    8.0000001800    6.3783160700
  10.7052460302    8.0000001000    6.3783332300
   8.5888018299    7.9999900400   14.8093515297
  11.4111680201    7.9999902200   14.8093193697
   8.6036496200    7.9999901900    5.1617089002
  11.3964653400    8.0000001000    5.1617525302
   9.2896972501    8.0000001800   15.9923439602
  10.7103250399    7.9999996800   15.9923230402
   9.3010309401    7.9999900800    3.9524459199
  10.6991090899    7.9999999300    3.9524633299
   7.4963272899    8.0000004500   10.0410446800
  12.5036145801    8.0000098000   10.0411102000
   7.6234631000    8.0000302200    7.5987045504
  12.3765385600    8.0000302000    7.5987955404
   7.4980548700    8.0000099800   14.7808545802
  12.5019249900    7.9999981700   14.7807888102
   7.5116733400    7.9999998100    5.1707048800
  12.4884582300    8.0000102100    5.1707565800
   8.7537473100    8.0000091800   16.9431167001
  11.2462791000    8.0000111200   16.9430987901
   8.7505096900    7.9999999400    3.0120765700
  11.2496249400    8.0000105600    3.0020723800
