generated by RamanPy, mode 9 displacement -0.01
1.0
   2.5690887290    1.4832640690    4.6081534370
  -2.5690887290    1.4832640690    4.6081534370
   0.0000000000   -2.9665281390    4.6081534370
 Li Nb O
 2 2 6
Cartesian
   0.0009602401   -0.0001043600    9.9252696000
  -0.0009326101   -0.0001025600    3.0130394600
  -0.0000394600    0.0004375001    0.0079799000
   0.0000366300    0.0004375101    6.9202096700
   1.5618731998   -0.1668729204    8.3278796196
  -0.9232420499   -1.2713369099    8.3322560302
  -0.6443176205    1.4372324901    8.3329255502
  -1.6458538001    0.2119189101    6.0281830302
   1.0072247902    1.3163827996    6.0237999596
   0.6443092605   -1.5292943299    6.0288373802
