
     Program PWSCF v.7.5 starts on 19Dec2025 at 16:44:10 

     This program is part of the open-source Quantum ESPRESSO suite
     for quantum simulation of materials; please cite
         "P. Giannozzi et al., J. Phys.:Condens. Matter 21 395502 (2009);
         "P. Giannozzi et al., J. Phys.:Condens. Matter 29 465901 (2017);
         "P. Giannozzi et al., J. Chem. Phys. 152 154105 (2020);
          URL http://www.quantum-espresso.org", 
     in publications or presentations arising from this work. More details at
     http://www.quantum-espresso.org/quote

     Parallel version (MPI), running on    96 processors

     MPI processes distributed on     1 nodes
     352031 MiB available memory on the printing compute node when the environment starts
 
     Reading input from scf.in
Warning: card &CELL ignored

     Current dimensions of program PWSCF are:
     Max number of different atomic species (ntypx) = 10
     Max number of k-points (npk) =  40000
     Max angular momentum in pseudopotentials (lmaxx) =  4
 
     K-points division:     npool     =       3
     R & G space division:  proc/nbgrp/npool/nimage =      32
     Subspace diagonalization in iterative solution of the eigenvalue problem:
     a serial algorithm will be used

 
     Parallelization info
     --------------------
     sticks:   dense  smooth     PW     G-vecs:    dense   smooth      PW
     Min          87      87     25                 2997     2997     451
     Max          88      88     26                 3001     3001     454
     Sum        2813    2813    803                96001    96001   14483
 
     Using Slab Decomposition
 


     bravais-lattice index     =            0
     lattice parameter (alat)  =      10.3566  a.u.
     unit-cell volume          =     711.0045 (a.u.)^3
     number of atoms/cell      =           10
     number of atomic types    =            3
     number of electrons       =        68.00
     number of Kohn-Sham states=           60
     kinetic-energy cutoff     =     100.0000  Ry
     charge density cutoff     =     400.0000  Ry
     scf convergence threshold =      1.0E-10
     mixing beta               =       0.7000
     number of iterations used =            8  plain     mixing
     Exchange-correlation= PBESOL
                           (   1   4  10   8   0   0   0)

     celldm(1)=  10.356556  celldm(2)=   0.000000  celldm(3)=   0.000000
     celldm(4)=   0.000000  celldm(5)=   0.000000  celldm(6)=   0.000000

     crystal axes: (cart. coord. in units of alat)
               a(1) = (   0.468773   0.270646   0.840834 )  
               a(2) = (  -0.468773   0.270646   0.840834 )  
               a(3) = (   0.000000  -0.541292   0.840834 )  

     reciprocal axes: (cart. coord. in units 2 pi/alat)
               b(1) = (  1.066614  0.615810  0.396432 )  
               b(2) = ( -1.066614  0.615810  0.396432 )  
               b(3) = (  0.000000 -1.231620  0.396432 )  


     PseudoPot. # 1 for Li read from file:
     ./Li.upf
     MD5 check sum: dc9f6e608df41cc7e5665a263ba47fe0
     Pseudo is Norm-conserving, Zval =  3.0
     Generated using ONCVPSP code by D. R. Hamann
     Using radial grid of 1944 points,  4 beta functions with: 
                l(1) =   0
                l(2) =   0
                l(3) =   1
                l(4) =   1

     PseudoPot. # 2 for Nb read from file:
     ./Nb.upf
     MD5 check sum: f0922cae2acd95e7020481ef16123e2a
     Pseudo is Norm-conserving + core correction, Zval = 13.0
     Generated using ONCVPSP code by D. R. Hamann
     Using radial grid of 1660 points,  6 beta functions with: 
                l(1) =   0
                l(2) =   0
                l(3) =   1
                l(4) =   1
                l(5) =   2
                l(6) =   2

     PseudoPot. # 3 for O  read from file:
     ./O.upf
     MD5 check sum: f226cbcd508cec715ff87a8f75a1dfba
     Pseudo is Norm-conserving + core correction, Zval =  6.0
     Generated using ONCVPSP code by D. R. Hamann
     Using radial grid of  936 points,  5 beta functions with: 
                l(1) =   0
                l(2) =   0
                l(3) =   1
                l(4) =   1
                l(5) =   2

     atomic species   valence    mass     pseudopotential
     Li                3.00     6.94100     Li( 1.00)
     Nb               13.00    92.90600     Nb( 1.00)
     O                 6.00    16.00000     O ( 1.00)

     No symmetry found



   Cartesian axes

     site n.     atom                  positions (alat units)
         1        Li     tau(   1) = (  -0.0000066   0.0000569   1.8110307  )
         2        Li     tau(   2) = (   0.0000556  -0.0000173   0.5497803  )
         3        Nb     tau(   3) = (  -0.0000319   0.0000252   0.0014563  )
         4        Nb     tau(   4) = (   0.0000188  -0.0000361   1.2627075  )
         5        O      tau(   5) = (   0.2853614  -0.0298443   1.5201082  )
         6        O      tau(   6) = (  -0.1685757  -0.2321809   1.5200991  )
         7        O      tau(   7) = (  -0.1167378   0.2620257   1.5201933  )
         8        O      tau(   8) = (  -0.3002120   0.0385374   1.0997712  )
         9        O      tau(   9) = (   0.1833984   0.2407602   1.0996678  )
        10        O      tau(  10) = (   0.1168233  -0.2792503   1.0997100  )

     number of k points=   216  Gaussian smearing, width (Ry)=  0.0200

     Number of k-points >= 100: set verbosity='high' to print them.

     Dense  grid:    96001 G-vectors     FFT dimensions: (  72,  72,  72)

     Estimated max dynamical RAM per process >      35.27 MB

     Estimated total dynamical RAM >       3.26 GB

     Initial potential from superposition of free atoms

     starting charge      67.9863, renormalised to      68.0000
     Starting wfcs are   48 randomized atomic wfcs +   12 random wfcs

     total cpu time spent up to now is        5.0 secs

     Self-consistent Calculation

     iteration #  1     ecut=   100.00 Ry     beta= 0.70
     Davidson diagonalization with overlap
     ethr =  1.00E-02,  avg # of iterations =  5.5

     total cpu time spent up to now is       65.3 secs

     total energy              =    -474.18517320 Ry
     estimated scf accuracy    <       4.37921181 Ry

     iteration #  2     ecut=   100.00 Ry     beta= 0.70
     Davidson diagonalization with overlap
     ethr =  6.44E-03,  avg # of iterations =  2.0

     total cpu time spent up to now is       82.4 secs

     total energy              =    -472.17951735 Ry
     estimated scf accuracy    <      20.54240776 Ry

     iteration #  3     ecut=   100.00 Ry     beta= 0.70
     Davidson diagonalization with overlap
     ethr =  6.44E-03,  avg # of iterations =  2.0

     total cpu time spent up to now is       93.1 secs

     total energy              =    -476.45160575 Ry
     estimated scf accuracy    <       0.57304788 Ry

     iteration #  4     ecut=   100.00 Ry     beta= 0.70
     Davidson diagonalization with overlap
     ethr =  8.43E-04,  avg # of iterations =  1.0

     total cpu time spent up to now is      123.5 secs

     total energy              =    -476.34696645 Ry
     estimated scf accuracy    <       0.25903970 Ry

     iteration #  5     ecut=   100.00 Ry     beta= 0.70
     Davidson diagonalization with overlap
     ethr =  3.81E-04,  avg # of iterations =  1.2

     total cpu time spent up to now is      128.5 secs

     total energy              =    -476.39845061 Ry
     estimated scf accuracy    <       0.00258571 Ry

     iteration #  6     ecut=   100.00 Ry     beta= 0.70
     Davidson diagonalization with overlap
     ethr =  3.80E-06,  avg # of iterations =  7.1

     total cpu time spent up to now is      150.7 secs

     total energy              =    -476.39886783 Ry
     estimated scf accuracy    <       0.00032290 Ry

     iteration #  7     ecut=   100.00 Ry     beta= 0.70
     Davidson diagonalization with overlap
     ethr =  4.75E-07,  avg # of iterations =  1.0

     total cpu time spent up to now is      156.3 secs

     total energy              =    -476.39887711 Ry
     estimated scf accuracy    <       0.00013095 Ry

     iteration #  8     ecut=   100.00 Ry     beta= 0.70
     Davidson diagonalization with overlap
     ethr =  1.93E-07,  avg # of iterations =  1.0

     total cpu time spent up to now is      161.7 secs

     total energy              =    -476.39889357 Ry
     estimated scf accuracy    <       0.00000418 Ry

     iteration #  9     ecut=   100.00 Ry     beta= 0.70
     Davidson diagonalization with overlap
     ethr =  6.14E-09,  avg # of iterations =  2.0

     total cpu time spent up to now is      178.1 secs

     total energy              =    -476.39889494 Ry
     estimated scf accuracy    <       0.00000093 Ry

     iteration # 10     ecut=   100.00 Ry     beta= 0.70
     Davidson diagonalization with overlap
     ethr =  1.37E-09,  avg # of iterations =  1.0

     total cpu time spent up to now is      182.9 secs

     total energy              =    -476.39889487 Ry
     estimated scf accuracy    <       0.00000048 Ry

     iteration # 11     ecut=   100.00 Ry     beta= 0.70
     Davidson diagonalization with overlap
     ethr =  6.99E-10,  avg # of iterations =  1.0

     total cpu time spent up to now is      188.0 secs

     total energy              =    -476.39889491 Ry
     estimated scf accuracy    <       0.00000004 Ry

     iteration # 12     ecut=   100.00 Ry     beta= 0.70
     Davidson diagonalization with overlap
     ethr =  5.45E-11,  avg # of iterations =  1.9

     total cpu time spent up to now is      194.0 secs

     total energy              =    -476.39889491 Ry
     estimated scf accuracy    <          6.9E-09 Ry

     iteration # 13     ecut=   100.00 Ry     beta= 0.70
     Davidson diagonalization with overlap
     ethr =  1.01E-11,  avg # of iterations =  1.0

     total cpu time spent up to now is      199.0 secs

     End of self-consistent calculation

     Number of k-points >= 100: set verbosity='high' to print the bands.

     the Fermi energy is     9.2371 ev

!    total energy              =    -476.39889492 Ry
     estimated scf accuracy    <          7.6E-11 Ry
     smearing contrib. (-TS)   =      -0.00000000 Ry
     internal energy E=F+TS    =    -476.39889492 Ry

     The total energy is F=E-TS. E is the sum of the following terms:
     one-electron contribution =    -142.20041761 Ry
     hartree contribution      =     103.98570488 Ry
     xc contribution           =    -108.02122176 Ry
     ewald contribution        =    -330.16296042 Ry

     convergence has been achieved in  13 iterations

     Writing all to output data dir out/pwscf.save/ :
     XML data file, charge density, pseudopotentials, collected wavefunctions
 
     init_run     :      2.95s CPU      3.27s WALL (       1 calls)
     electrons    :    192.24s CPU    194.01s WALL (       1 calls)

     Called by init_run:
     wfcinit      :      2.84s CPU      2.92s WALL (       1 calls)
     potinit      :      0.03s CPU      0.04s WALL (       1 calls)
     hinit0       :      0.05s CPU      0.27s WALL (       1 calls)

     Called by electrons:
     c_bands      :    175.80s CPU    177.29s WALL (      13 calls)
     sum_band     :     15.75s CPU     15.97s WALL (      13 calls)
     v_of_rho     :      0.47s CPU      0.48s WALL (      14 calls)
     mix_rho      :      0.10s CPU      0.12s WALL (      13 calls)

     Called by c_bands:
     init_us_2    :      0.71s CPU      0.75s WALL (    1944 calls)
     cegterg      :     71.03s CPU     71.94s WALL (     936 calls)

     Called by *egterg:
     cdiaghg      :     10.50s CPU     10.58s WALL (    2946 calls)
     h_psi        :     56.59s CPU     57.43s WALL (    3018 calls)
     g_psi        :      0.08s CPU      0.08s WALL (    2010 calls)

     Called by h_psi:
     h_psi:calbec :      3.52s CPU      3.58s WALL (    3018 calls)
     vloc_psi     :     51.72s CPU     52.47s WALL (    3018 calls)
                                        0.00s GPU  (    3018 calls)
     add_vuspsi   :      1.23s CPU      1.25s WALL (    3018 calls)

     General routines
     calbec       :      3.51s CPU      3.57s WALL (    3018 calls)
     fft          :      0.23s CPU      0.34s WALL (     140 calls)
     ffts         :      0.07s CPU      0.07s WALL (      13 calls)
     fftw         :     56.56s CPU     57.37s WALL (  317426 calls)
 
     Parallel routines
 
     PWSCF        :   3m19.33s CPU   3m23.33s WALL

 
   This run was terminated on:  16:47:34  19Dec2025            

=------------------------------------------------------------------------------=
   JOB DONE.
=------------------------------------------------------------------------------=
