generated by RamanPy, mode 14 displacement 0.01
1.0
   2.5690887290    1.4832640690    4.6081534370
  -2.5690887290    1.4832640690    4.6081534370
   0.0000000000   -2.9665281390    4.6081534370
 Li Nb O
 2 2 6
Cartesian
   0.0048004395   -0.0034942796    9.9252808800
   0.0062085293   -0.0000407500    3.0130300600
   0.0000757800    0.0013447699    0.0079867300
  -0.0008968499   -0.0011710699    6.9202010600
   1.5632415001   -0.1648342199    8.3294957802
  -0.9238937600   -1.2713210901    8.3313270900
  -0.6421712998    1.4364971800    8.3322450499
  -1.6450059900    0.2111864400    6.0256729701
   1.0041243701    1.3210930398    6.0285384098
   0.6384708102   -1.5307264400    6.0266055500
