generated by RamanPy, mode 58 displacement -0.01
1.0
  15.0000000000    0.0000000000    0.0000000000
   0.0000000000   15.0000000000    0.0000000000
   0.0000000000    0.0000000000   25.0000000000
 N C H
 4 18 12
Cartesian
   8.6372137000    7.9995358400    7.6031858300
  11.3627034600    8.0005146700    7.6032854700
   8.5704054600    7.9998334700   12.4096807900
  11.4294248900    8.0001466200   12.4096163400
   9.2726302100    8.0003618000   11.2711032700
  10.7272731100    7.9995941400   11.2710599100
   9.2762336200    7.9998262300    8.8321871600
  10.7237278200    8.0001688400    8.8322470300
   8.5873495100    7.9999001700   10.0223619000
  11.4127170200    8.0000894500   10.0223799600
   9.2780240700    8.0000853300   13.5653829200
  10.7219303100    7.9998778100   13.5653621400
   9.2931549400    8.0022516502    6.3782368800
  10.7069290900    7.9977473798    6.3782540700
   8.5882120400    8.0000460300   14.8075627800
  11.4117893000    7.9999317900   14.8075521300
   8.6037848800    7.9966189798    5.1627681000
  11.3963600600    8.0033761802    5.1627875300
   9.2900647000    8.0000700600   15.9936162000
  10.7099456800    7.9999272100   15.9936078300
   9.3020352400    7.9989423099    3.9518671700
  10.6980945600    8.0010409201    3.9518712500
   7.4959000200    8.0000860000   10.0408097500
  12.5040762600    7.9999093400   10.0408725900
   7.6236774700    8.0001829300    7.6012420100
  12.3762974900    7.9998777600    7.6013547000
   7.4978136600    7.9998572400   14.7821434200
  12.5021759800    8.0001578800   14.7820919900
   7.5117244800    8.0050679504    5.1707265600
  12.4884158700    7.9949389396    5.1707694000
   8.7540838500    7.9999401900   16.9436662200
  11.2459328700    8.0000889400   16.9436557400
   8.7503831100    8.0025009102    3.0121555400
  11.2497420000    7.9975240998    3.0021436100
