generated by RamanPy, mode 20 displacement 0.01
1.0
  15.0000000000    0.0000000000    0.0000000000
   0.0000000000   15.0000000000    0.0000000000
   0.0000000000    0.0000000000   25.0000000000
 N C H
 4 18 12
Cartesian
   8.6358752900    8.0000202000    7.6039181700
  11.3641356700    8.0000300600    7.6039533300
   8.5707668900    7.9999900500   12.4095041000
  11.4291545000    7.9999900000   12.4095025400
   9.2730191000    7.9999798900   11.2728265400
  10.7268878800    7.9999799300   11.2728238200
   9.2781898200    8.0000000000    8.8341212500
  10.7217694500    7.9999999000    8.8341319800
   8.5869215800    7.9999901100   10.0193128400
  11.4130185100    7.9999900400   10.0193393000
   9.2782430400    7.9999801200   13.5646421100
  10.7216977300    7.9999800500   13.5646246500
   9.2945024000    8.0000003600    6.3757595800
  10.7055677500    7.9999998900    6.3757675100
   8.5877829300    7.9999901400   14.8080061400
  11.4121877400    7.9999899100   14.8079810600
   8.6041853200    7.9999898900    5.1654209300
  11.3959257500    8.0000000700    5.1654694900
   9.2908880600    7.9999996900   15.9937525000
  10.7091318400    8.0000001200   15.9937316500
   9.3006413500    7.9999901100    3.9513990100
  10.6994959600    8.0000001900    3.9514137200
   7.4958456300    7.9999996500   10.0423752900
  12.5040943200    8.0000099700   10.0424312800
   7.6233343000    8.0000304400    7.6004083100
  12.3766660000    8.0000301600    7.6005048900
   7.4976807700    8.0000103300   14.7818211900
  12.5022993700    8.0000006700   14.7817488500
   7.5118685200    8.0000001700    5.1688474900
  12.4882619200    8.0000104000    5.1689055800
   8.7537542800    8.0000099700   16.9433750700
  11.2462779300    8.0000097200   16.9433534100
   8.7510694000    8.0000001100    3.0113064500
  11.2490712700    8.0000101200    3.0013054900
