generated by RamanPy, mode 27 displacement -0.01
1.0
   2.5690887290    1.4832640690    4.6081534370
  -2.5690887290    1.4832640690    4.6081534370
   0.0000000000   -2.9665281390    4.6081534370
 Li Nb O
 2 2 6
Cartesian
  -0.0010758502    0.0004874301    9.9252695500
   0.0011865503   -0.0001131000    3.0130385600
   0.0034396308    0.0011691603    0.0079788700
  -0.0024023005    0.0027333606    6.9202093900
   1.5656865104   -0.1656430104    8.3281700994
  -0.9224082297   -1.2745016105    8.3321327502
  -0.6381879096    1.4336836795    8.3327591004
  -1.6476016405    0.2100878398    6.0292336605
   1.0024280694    1.3186086298    6.0242901294
   0.6375242894   -1.5317394103    6.0272990901
