generated by RamanPy, mode 4 displacement -0.01
1.0
  15.0000000000    0.0000000000    0.0000000000
   0.0000000000   15.0000000000    0.0000000000
   0.0000000000    0.0000000000   25.0000000000
 N C H
 4 18 12
Cartesian
   8.6372608500    8.0000199400    7.6032083200
  11.3627489100    8.0000299600    7.6032483500
   8.5704461100    7.9999899800   12.4096578900
  11.4294739800    7.9999900100   12.4096481300
   9.2726330600    7.9999800000   11.2710740300
  10.7272769500    7.9999801000   11.2710836500
   9.2762323900    7.9999999700    8.8322116200
  10.7237280300    8.0000000100    8.8322217600
   8.5873048000    7.9999900100   10.0223591700
  11.4126319300    7.9999900500   10.0223791100
   9.2780200400    7.9999799500   13.5654352600
  10.7219200100    7.9999799800   13.5654261400
   9.2931495400    7.9999998100    6.3782407900
  10.7069209800    8.0000000400    6.3782498400
   8.5895935897    7.9999898300   14.8076645400
  11.4103561103    7.9999900000   14.8076355100
   8.6037672800    7.9999900000    5.1627605200
  11.3963313400    7.9999999000    5.1627997900
   9.2908198199    8.0000001200   15.9922529103
  10.7091985901    7.9999999200   15.9922280403
   9.3020328200    7.9999899600    3.9518453600
  10.6980866100    7.9999999500    3.9519035200
   7.4958005600    8.0000001200   10.0408112300
  12.5041503900    8.0000100300   10.0408713800
   7.6236856700    8.0000297100    7.6012493100
  12.3763147400    8.0000299800    7.6013395300
   7.4933007709    8.0000099000   14.7820581200
  12.5067468191    7.9999999500   14.7819868800
   7.5117287600    7.9999999200    5.1707207000
  12.4884364100    8.0000098100    5.1707808100
   8.7516379205    8.0000103200   16.9480090392
  11.2483988395    8.0000099300   16.9480024092
   8.7504198400    7.9999999900    3.0121986100
  11.2497967500    8.0000098300    3.0020708000
