generated by RamanPy, mode 68 displacement -0.01
1.0
  15.0000000000    0.0000000000    0.0000000000
   0.0000000000   15.0000000000    0.0000000000
   0.0000000000    0.0000000000   25.0000000000
 N C H
 4 18 12
Cartesian
   8.6372610100    7.9990509302    7.6032103700
  11.3627472500    8.0009990198    7.6032509300
   8.5704518700    8.0007183499   12.4096592300
  11.4294698900    7.9992615201   12.4096503100
   9.2726302600    7.9988461202   11.2710783800
  10.7272788500    8.0011135798   11.2710910900
   9.2762316300    8.0063433789    8.8322089600
  10.7237291600    7.9936572711    8.8322209600
   8.5872817500    7.9989377502   10.0223576100
  11.4126575300    8.0010409198   10.0223819400
   9.2780206400    8.0005516699   13.5653805700
  10.7219203800    7.9994096601   13.5653699600
   9.2931500600    7.9995224001    6.3782409700
  10.7069191500    8.0004799299    6.3782497600
   8.5881997300    7.9994715001   14.8075711900
  11.4117699500    8.0005076399   14.8075392400
   8.6037713600    8.0000751200    5.1627610700
  11.3963391300    7.9999134100    5.1627991100
   9.2900695500    8.0005906599   15.9936213100
  10.7099495500    7.9994083001   15.9935988200
   9.3020408300    7.9997393500    3.9518607200
  10.6981007900    8.0002485500    3.9518779200
   7.4958804900    7.9979991804   10.0408087500
  12.5040592100    8.0020107396   10.0408706300
   7.6236902300    7.9995383501    7.6012505300
  12.3763092400    8.0005195399    7.6013403100
   7.4978099200    7.9995839501   14.7821502200
  12.5021699400    8.0004278099   14.7820798700
   7.5117203700    8.0004347399    5.1707200300
  12.4884097300    7.9995783101    5.1707800500
   8.7540901400    8.0002257900   16.9436705200
  11.2459401000    7.9997967300   16.9436495100
   8.7503894700    8.0000498400    3.0121506400
  11.2497500500    7.9999657800    3.0021493000
