generated by RamanPy, mode 70 displacement -0.01
1.0
  15.0000000000    0.0000000000    0.0000000000
   0.0000000000   15.0000000000    0.0000000000
   0.0000000000    0.0000000000   25.0000000000
 N C H
 4 18 12
Cartesian
   8.6375741499    8.0000205000    7.6018822602
  11.3624268801    8.0000298800    7.6019033202
   8.5723304697    7.9999893700   12.4111381798
  11.4275784803    7.9999905100   12.4111408998
   9.2732397399    7.9999803300   11.2717150099
  10.7266686901    7.9999795600   11.2717295499
   9.2764185100    7.9999996300    8.8310693202
  10.7235421300    7.9999993500    8.8310711902
   8.5885260898    7.9999913600   10.0221554700
  11.4114122202    7.9999903600   10.0221733500
   9.2776209201    7.9999798600   13.5674700397
  10.7223134299    7.9999804300   13.5674727897
   9.2929527300    7.9999996800    6.3769917602
  10.7071092200    8.0000010900    6.3769830002
   8.5844169206    7.9999888800   14.8075908800
  11.4155586294    7.9999885200   14.8075753000
   8.6014740004    7.9999881500    5.1630645100
  11.3986439896    7.9999999200    5.1630868000
   9.2897538901    7.9999990700   15.9911671604
  10.7102763699    8.0000012900   15.9911633604
   9.3019319800    7.9999911000    3.9537993197
  10.6982247300    7.9999976000    3.9537984197
   7.4962329499    7.9999999800   10.0407430100
  12.5037065501    8.0000101300   10.0408029400
   7.6237760300    8.0000250800    7.6008286101
  12.3762216000    8.0000292400    7.6009124601
   7.4967249502    8.0000088900   14.7821763800
  12.5032563298    7.9999992800   14.7821063200
   7.5110657801    8.0000006600    5.1708307700
  12.4890665199    8.0000109600    5.1708920200
   8.7548803399    8.0000102800   16.9434616100
  11.2451487501    8.0000101700   16.9434484800
   8.7509087799    8.0000020000    3.0123905100
  11.2492302401    8.0000099400    3.0023812300
