generated by RamanPy, mode 54 displacement -0.01
1.0
  15.0000000000    0.0000000000    0.0000000000
   0.0000000000   15.0000000000    0.0000000000
   0.0000000000    0.0000000000   25.0000000000
 N C H
 4 18 12
Cartesian
   8.6372613200    8.0000574700    7.6032077900
  11.3627482000    7.9999923800    7.6032461900
   8.5704467000    8.0015019406   12.4096614600
  11.4294674400    7.9984785894   12.4096484600
   9.2726308800    7.9986899795   11.2710814500
  10.7272798700    8.0012700705   11.2710892000
   9.2762292100    7.9998004099    8.8322104300
  10.7237307700    8.0001999401    8.8322187700
   8.5872808100    8.0004235002   10.0223620100
  11.4126606700    7.9995562598   10.0223795100
   9.2780197900    7.9962201085   13.5653806500
  10.7219201100    8.0037392615   13.5653689700
   9.2931526600    8.0000177700    6.3782392400
  10.7069188200    7.9999821000    6.3782490100
   8.5881989600    8.0027844811   14.8075684100
  11.4117694700    7.9971983089   14.8075404700
   8.6037748000    7.9999807500    5.1627605000
  11.3963381200    8.0000092100    5.1628017100
   9.2900706400    8.0013127305   15.9936176500
  10.7099524300    7.9986831995   15.9936040700
   9.3020404800    7.9999869900    3.9518604100
  10.6980988300    8.0000027600    3.9518837200
   7.4958801500    7.9995168998   10.0408114200
  12.5040600300    8.0004944602   10.0408714000
   7.6236902700    8.0000186400    7.6012482500
  12.3763095500    8.0000416800    7.6013381500
   7.4978095800    7.9961990884   14.7821499800
  12.5021697700    8.0038072016   14.7820789000
   7.5117213800    8.0000115900    5.1707210300
  12.4884093400    7.9999985400    5.1707806700
   8.7540886100    7.9972903889   16.9436686400
  11.2459400200    8.0027358111   16.9436516000
   8.7503895700    8.0000055800    3.0121505500
  11.2497499300    8.0000049200    3.0021514000
