25  -1 1.0e-02 
  0.997907911234823     
     2.5744747587826007    1.4863736950050308    4.6178143141981334
    -2.5744747587826007    1.4863736950050308    4.6178143141981334
    -0.0000000000000000   -2.9727473900100621    4.6178143141981334
   Li   Nb   O 
     2     2     6
Cartesian
   0.0000135196    0.0000109687    9.9317307316
   0.0000097662   -0.0000152323    3.0065995107
  -0.0000011297    0.0000094747    0.0062206439
  -0.0000040450   -0.0000087823    6.9219693245
   1.5645437863   -0.1627380981    8.3307457059
  -0.9232171056   -1.2735783786    8.3307251167
  -0.6413225993    1.4363109377    8.3307455601
  -1.6448311961    0.2120829627    6.0272357910
   1.0060733517    1.3184170205    6.0272209595
   0.6387644038   -1.5304954644    6.0272128332
