
     Program PWSCF v.7.5 starts on 21Jul2026 at 13:55:51 

     This program is part of the open-source Quantum ESPRESSO suite
     for quantum simulation of materials; please cite
         "P. Giannozzi et al., J. Phys.:Condens. Matter 21 395502 (2009);
         "P. Giannozzi et al., J. Phys.:Condens. Matter 29 465901 (2017);
         "P. Giannozzi et al., J. Chem. Phys. 152 154105 (2020);
          URL http://www.quantum-espresso.org", 
     in publications or presentations arising from this work. More details at
     http://www.quantum-espresso.org/quote

     Parallel version (MPI & OpenMP), running on       8 processor cores
     Number of MPI processes:                 4
     Threads/MPI process:                     2

     MPI processes distributed on     1 nodes
     6785 MiB available memory on the printing compute node when the environment starts

     Reading input from scf.in
Warning: card &CELL ignored

     Current dimensions of program PWSCF are:
     Max number of different atomic species (ntypx) = 10
     Max number of k-points (npk) =  40000
     Max angular momentum in pseudopotentials (lmaxx) =  4
read_pp_mesh; mismatch in mesh size, discarding the one in header
read_pp_mesh; mismatch in mesh size, discarding the one in header
read_pp_mesh; mismatch in mesh size, discarding the one in header
     Message from routine setup:
     using ibrav=0 with symmetry is DISCOURAGED, use correct ibrav instead

     R & G space division:  proc/nbgrp/npool/nimage =       4
     Subspace diagonalization in iterative solution of the eigenvalue problem:
     a serial algorithm will be used


     Parallelization info
     --------------------
     sticks:   dense  smooth     PW     G-vecs:    dense   smooth      PW
     Min        2136     708    202               125858    24175    3647
     Max        2137     709    203               125861    24177    3648
     Sum        8545    2833    811               503437    96703   14591

     Using Slab Decomposition



     bravais-lattice index     =            0
     lattice parameter (alat)  =      10.3914  a.u.
     unit-cell volume          =     717.2216 (a.u.)^3
     number of atoms/cell      =           10
     number of atomic types    =            3
     number of electrons       =        68.00
     number of Kohn-Sham states=           34
     kinetic-energy cutoff     =     100.0000  Ry
     charge density cutoff     =    1200.0000  Ry
     scf convergence threshold =      1.0E-10
     mixing beta               =       0.7000
     number of iterations used =            8  plain     mixing
     Exchange-correlation= SLA PW PSX PSC
                           (   1   4  10   8   0   0   0)

     celldm(1)=  10.391427  celldm(2)=   0.000000  celldm(3)=   0.000000
     celldm(4)=   0.000000  celldm(5)=   0.000000  celldm(6)=   0.000000

     crystal axes: (cart. coord. in units of alat)
               a(1) = (   0.468366  -0.270411   0.841137 )  
               a(2) = (   0.000000   0.540822   0.841137 )  
               a(3) = (  -0.468366  -0.270411   0.841137 )  

     reciprocal axes: (cart. coord. in units 2 pi/alat)
               b(1) = (  1.067542 -0.616345  0.396289 )  
               b(2) = (  0.000000  1.232691  0.396289 )  
               b(3) = ( -1.067542 -0.616345  0.396289 )  


     PseudoPot. # 1 for Li read from file:
     ./Li.upf
     MD5 check sum: 080baaab5798ae2ecaac2fd63ea0aa7a
     Pseudo is Projector augmented-wave + core cor, Zval =  3.0
     Generated using ATOMPAW code
     Shape of augmentation charge: BESSEL
     Using radial grid of 2342 points,  5 beta functions with: 
                l(1) =   0
                l(2) =   0
                l(3) =   0
                l(4) =   1
                l(5) =   1
     Q(r) pseudized with 0 coefficients 


     PseudoPot. # 2 for Nb read from file:
     ./Nb.upf
     MD5 check sum: 92a3ec83fe5f8e014e76e97b20ee825b
     Pseudo is Projector augmented-wave + core cor, Zval = 13.0
     Generated using ATOMPAW code
     Shape of augmentation charge: BESSEL
     Using radial grid of 2342 points,  6 beta functions with: 
                l(1) =   0
                l(2) =   0
                l(3) =   1
                l(4) =   1
                l(5) =   2
                l(6) =   2
     Q(r) pseudized with 0 coefficients 


     PseudoPot. # 3 for O  read from file:
     ./O.upf
     MD5 check sum: 9adf4858934c6f157b139e5460685252
     Pseudo is Projector augmented-wave + core cor, Zval =  6.0
     Generated using ATOMPAW code
     Shape of augmentation charge: SINC**2
     Using radial grid of 2342 points,  4 beta functions with: 
                l(1) =   0
                l(2) =   0
                l(3) =   1
                l(4) =   1
     Q(r) pseudized with 0 coefficients 


     atomic species   valence    mass     pseudopotential
     Li                3.00     6.94100     Li( 1.00)
     Nb               13.00    92.90600     Nb( 1.00)
     O                 6.00    16.00000     O ( 1.00)

      3 Sym. Ops. (no inversion) found



   Cartesian axes

     site n.     atom                  positions (alat units)
         1        Li     tau(   1) = (   0.0000000  -0.0000000   0.7146305  )
         2        Li     tau(   2) = (   0.0000000  -0.0000000   1.9764329  )
         3        Nb     tau(   3) = (   0.0000000   0.0000000   0.0000000  )
         4        Nb     tau(   4) = (   0.0000000   0.0000000   1.2616856  )
         5        O      tau(   5) = (  -0.1660833  -0.2358388   1.0189152  )
         6        O      tau(   6) = (   0.2872839  -0.0259131   1.0189152  )
         7        O      tau(   7) = (  -0.1212005   0.2617517   1.0189152  )
         8        O      tau(   8) = (   0.1810907   0.2445010   1.4394699  )
         9        O      tau(   9) = (  -0.3022893   0.0345786   1.4394699  )
        10        O      tau(  10) = (   0.1211988  -0.2790796   1.4394699  )

     number of k points=    40
                       cart. coord. in units 2pi/alat
        k(    1) = (   0.0000000   0.0000000   0.0000000), wk =   0.0092593
        k(    2) = (  -0.1779236  -0.1027242   0.0660482), wk =   0.0555556
        k(    3) = (  -0.3558472  -0.2054485   0.1320963), wk =   0.0555556
        k(    4) = (   0.5337708   0.3081727  -0.1981445), wk =   0.0277778
        k(    5) = (  -0.1779236   0.1027242   0.1320964), wk =   0.0555556
        k(    6) = (  -0.3558472   0.0000000   0.1981445), wk =   0.0555556
        k(    7) = (   0.5337708   0.5136212  -0.1320963), wk =   0.0555556
        k(    8) = (   0.3558472   0.4108969  -0.0660481), wk =   0.0555556
        k(    9) = (   0.1779236   0.3081727   0.0000000), wk =   0.0555556
        k(   10) = (  -0.3558472   0.2054485   0.2641927), wk =   0.0555556
        k(   11) = (   0.5337708   0.7190696  -0.0660481), wk =   0.0555556
        k(   12) = (   0.3558472   0.6163454   0.0000000), wk =   0.0555556
        k(   13) = (   0.5337708  -0.3081727  -0.3962891), wk =   0.0277778
        k(   14) = (   0.0000000   0.0000000   0.1981445), wk =   0.0185185
        k(   15) = (  -0.1779236  -0.1027242   0.2641927), wk =   0.0555556
        k(   16) = (   0.7116944   0.4108969  -0.0660481), wk =   0.0555556
        k(   17) = (   0.5337708   0.3081727   0.0000000), wk =   0.0555556
        k(   18) = (   0.3558472   0.2054485   0.0660482), wk =   0.0555556
        k(   19) = (  -0.1779236   0.1027242   0.3302409), wk =   0.0555556
        k(   20) = (   0.7116944   0.6163454   0.0000000), wk =   0.0555556
        k(   21) = (   0.5337708   0.5136212   0.0660482), wk =   0.0555556
        k(   22) = (   0.3558472   0.4108969   0.1320964), wk =   0.0555556
        k(   23) = (   0.7116944  -0.4108969  -0.3302409), wk =   0.0555556
        k(   24) = (   0.5337708  -0.5136212  -0.2641927), wk =   0.0555556
        k(   25) = (   0.3558472  -0.6163454  -0.1981446), wk =   0.0555556
        k(   26) = (   0.5337708  -0.3081727  -0.1981446), wk =   0.0555556
        k(   27) = (   0.0000000   0.0000000   0.3962891), wk =   0.0185185
        k(   28) = (   0.8896180   0.5136212   0.0660482), wk =   0.0555556
        k(   29) = (   0.7116944   0.4108969   0.1320964), wk =   0.0555556
        k(   30) = (   0.8896180  -0.5136212  -0.2641927), wk =   0.0555556
        k(   31) = (   0.7116944  -0.6163454  -0.1981446), wk =   0.0555556
        k(   32) = (   0.0000000   0.0000000  -0.5944336), wk =   0.0092593
        k(   33) = (  -0.3558472   0.0000000  -0.1981445), wk =   0.0555556
        k(   34) = (   0.5337708  -0.5136212   0.1320963), wk =   0.0555556
        k(   35) = (   0.3558472  -0.4108969   0.0660481), wk =   0.0555556
        k(   36) = (   0.5337708  -0.7190696   0.0660481), wk =   0.0555556
        k(   37) = (   0.7116944  -0.6163454  -0.0000000), wk =   0.0555556
        k(   38) = (   0.5337708  -0.5136212  -0.0660482), wk =   0.0555556
        k(   39) = (   0.3558472  -0.4108969  -0.1320964), wk =   0.0555556
        k(   40) = (   0.5337708   0.5136212   0.2641927), wk =   0.0555556

     Dense  grid:   503437 G-vectors     FFT dimensions: ( 120, 120, 120)

     Smooth grid:    96703 G-vectors     FFT dimensions: (  72,  72,  72)

     Estimated max dynamical RAM per process >     535.08 MB

     Estimated total dynamical RAM >       2.09 GB

     Initial potential from superposition of free atoms

     starting charge      67.9859, renormalised to      68.0000
     Starting wfcs are  102 randomized atomic wfcs
     Checking if some PAW data can be deallocated... 

     total cpu time spent up to now is       28.1 secs

     per-process dynamical memory:   335.1 Mb

     Self-consistent Calculation

     iteration #  1     ecut=   100.00 Ry     beta= 0.70
     Davidson diagonalization with overlap
     ethr =  1.00E-02,  avg # of iterations =  2.0

     total cpu time spent up to now is       51.8 secs

     total energy              =    -935.17370083 Ry
     estimated scf accuracy    <       4.99662553 Ry

     iteration #  2     ecut=   100.00 Ry     beta= 0.70
     Davidson diagonalization with overlap
     ethr =  7.35E-03,  avg # of iterations =  6.0

     total cpu time spent up to now is       96.4 secs

     total energy              =    -933.86326139 Ry
     estimated scf accuracy    <      23.81786784 Ry

     iteration #  3     ecut=   100.00 Ry     beta= 0.70
     Davidson diagonalization with overlap
     ethr =  7.35E-03,  avg # of iterations =  5.2

     total cpu time spent up to now is      140.5 secs

     total energy              =    -938.00598958 Ry
     estimated scf accuracy    <       0.54540256 Ry

     iteration #  4     ecut=   100.00 Ry     beta= 0.70
     Davidson diagonalization with overlap
     ethr =  8.02E-04,  avg # of iterations =  1.2

     total cpu time spent up to now is      164.3 secs

     total energy              =    -937.88746245 Ry
     estimated scf accuracy    <       0.32031776 Ry

     iteration #  5     ecut=   100.00 Ry     beta= 0.70
     Davidson diagonalization with overlap
     ethr =  4.71E-04,  avg # of iterations =  2.7

     total cpu time spent up to now is      193.7 secs

     total energy              =    -937.93568606 Ry
     estimated scf accuracy    <       0.01389595 Ry

     iteration #  6     ecut=   100.00 Ry     beta= 0.70
     Davidson diagonalization with overlap
     ethr =  2.04E-05,  avg # of iterations =  5.5

     total cpu time spent up to now is      239.6 secs

     total energy              =    -937.94398982 Ry
     estimated scf accuracy    <       0.02249979 Ry

     iteration #  7     ecut=   100.00 Ry     beta= 0.70
     Davidson diagonalization with overlap
     ethr =  2.04E-05,  avg # of iterations =  4.0

     total cpu time spent up to now is      273.2 secs

     total energy              =    -937.94713004 Ry
     estimated scf accuracy    <       0.00073288 Ry

     iteration #  8     ecut=   100.00 Ry     beta= 0.70
     Davidson diagonalization with overlap
     ethr =  1.08E-06,  avg # of iterations =  5.2

     total cpu time spent up to now is      313.2 secs

     total energy              =    -937.94746188 Ry
     estimated scf accuracy    <       0.00137314 Ry

     iteration #  9     ecut=   100.00 Ry     beta= 0.70
     Davidson diagonalization with overlap
     ethr =  1.08E-06,  avg # of iterations =  2.0

     total cpu time spent up to now is      338.9 secs

     total energy              =    -937.94735501 Ry
     estimated scf accuracy    <       0.00051962 Ry

     iteration # 10     ecut=   100.00 Ry     beta= 0.70
     Davidson diagonalization with overlap
     ethr =  7.64E-07,  avg # of iterations =  4.0

     total cpu time spent up to now is      372.4 secs

     total energy              =    -937.94748621 Ry
     estimated scf accuracy    <       0.00001398 Ry

     iteration # 11     ecut=   100.00 Ry     beta= 0.70
     Davidson diagonalization with overlap
     ethr =  2.06E-08,  avg # of iterations =  4.3

     total cpu time spent up to now is      404.3 secs

     total energy              =    -937.94748573 Ry
     estimated scf accuracy    <       0.00002716 Ry

     iteration # 12     ecut=   100.00 Ry     beta= 0.70
     Davidson diagonalization with overlap
     ethr =  2.06E-08,  avg # of iterations =  1.8

     total cpu time spent up to now is      426.9 secs

     total energy              =    -937.94748322 Ry
     estimated scf accuracy    <       0.00001239 Ry

     iteration # 13     ecut=   100.00 Ry     beta= 0.70
     Davidson diagonalization with overlap
     ethr =  1.82E-08,  avg # of iterations =  3.1

     total cpu time spent up to now is      456.1 secs

     total energy              =    -937.94748492 Ry
     estimated scf accuracy    <       0.00000069 Ry

     iteration # 14     ecut=   100.00 Ry     beta= 0.70
     Davidson diagonalization with overlap
     ethr =  1.01E-09,  avg # of iterations =  4.4

     total cpu time spent up to now is      489.5 secs

     total energy              =    -937.94748523 Ry
     estimated scf accuracy    <       0.00000006 Ry

     iteration # 15     ecut=   100.00 Ry     beta= 0.70
     Davidson diagonalization with overlap
     ethr =  8.51E-11,  avg # of iterations =  3.6

     total cpu time spent up to now is      519.7 secs

     total energy              =    -937.94748524 Ry
     estimated scf accuracy    <          8.1E-09 Ry

     iteration # 16     ecut=   100.00 Ry     beta= 0.70
     Davidson diagonalization with overlap
     ethr =  1.20E-11,  avg # of iterations =  3.9

     total cpu time spent up to now is      548.1 secs

     total energy              =    -937.94748524 Ry
     estimated scf accuracy    <          1.5E-09 Ry

     iteration # 17     ecut=   100.00 Ry     beta= 0.70
     Davidson diagonalization with overlap
     ethr =  2.24E-12,  avg # of iterations =  2.7

     total cpu time spent up to now is      566.4 secs

     total energy              =    -937.94748524 Ry
     estimated scf accuracy    <          8.2E-10 Ry

     iteration # 18     ecut=   100.00 Ry     beta= 0.70
     Davidson diagonalization with overlap
     ethr =  1.21E-12,  avg # of iterations =  3.7

     total cpu time spent up to now is      589.5 secs

     total energy              =    -937.94748524 Ry
     estimated scf accuracy    <          1.4E-10 Ry

     iteration # 19     ecut=   100.00 Ry     beta= 0.70
     Davidson diagonalization with overlap
     ethr =  2.02E-13,  avg # of iterations =  4.1

     total cpu time spent up to now is      624.1 secs

     End of self-consistent calculation

          k = 0.0000 0.0000 0.0000 ( 12147 PWs)   bands (ev):

   -47.1943 -47.1786 -34.7646 -34.7617 -23.4805 -23.4805 -23.4470 -23.3212
   -23.3212 -23.2583  -9.8423  -9.2142  -9.2142  -8.1892  -8.0435  -8.0435
     2.4500   2.4500   2.6922   2.8413   2.8413   3.7335   4.9179   4.9179
     5.0878   5.7419   6.3920   6.4526   6.4526   6.5989   6.5990   6.7484
     7.0468   7.0468

          k =-0.1779-0.1027 0.0660 ( 12154 PWs)   bands (ev):

   -47.1932 -47.1796 -34.7644 -34.7619 -23.4717 -23.4704 -23.4340 -23.3333
   -23.3324 -23.2709  -9.7331  -9.1520  -9.1465  -8.2756  -8.1523  -8.1364
     2.5017   2.5865   2.8913   3.0098   3.0198   3.7402   4.6617   4.7952
     4.8528   5.7329   6.1304   6.2922   6.3828   6.5251   6.7330   6.7759
     6.9090   6.9892

          k =-0.3558-0.2054 0.1321 ( 12124 PWs)   bands (ev):

   -47.1903 -47.1825 -34.7639 -34.7624 -23.4459 -23.4423 -23.3992 -23.3656
   -23.3627 -23.3054  -9.4317  -8.9843  -8.9595  -8.5424  -8.4031  -8.3724
     2.7714   2.8946   3.2279   3.5267   3.5308   3.8301   4.0943   4.3807
     4.4961   5.2992   5.4801   5.7040   6.5103   6.6305   6.6542   6.7552
     6.9040   6.9868

          k = 0.5338 0.3082-0.1981 ( 12104 PWs)   bands (ev):

   -47.1864 -47.1864 -34.7633 -34.7631 -23.4074 -23.4074 -23.4031 -23.4030
   -23.3523 -23.3523  -9.0280  -9.0279  -8.7174  -8.7172  -8.6257  -8.6255
     3.1622   3.1623   3.4247   3.4248   3.8077   3.8080   4.2979   4.2982
     4.6078   4.6079   5.0122   5.0125   6.7025   6.7026   6.7581   6.7581
     6.8762   6.8764

          k =-0.1779 0.1027 0.1321 ( 12135 PWs)   bands (ev):

   -47.1929 -47.1799 -34.7644 -34.7619 -23.4833 -23.4680 -23.4167 -23.3586
   -23.3192 -23.2674  -9.7250  -9.1939  -9.0485  -8.4089  -8.1399  -8.0842
     2.4607   2.6333   2.7595   3.1140   3.1584   3.8650   4.2644   4.9747
     5.0152   5.7435   6.0098   6.2510   6.3594   6.4518   6.5872   6.7340
     6.9872   6.9898

          k =-0.3558 0.0000 0.1981 ( 12128 PWs)   bands (ev):

   -47.1909 -47.1819 -34.7640 -34.7623 -23.4760 -23.4557 -23.4013 -23.3741
   -23.3296 -23.2818  -9.5488  -9.1123  -8.8463  -8.6792  -8.2541  -8.2132
     2.5077   2.8165   3.0619   3.3909   3.4713   3.7579   4.1988   4.5907
     4.9480   5.4176   5.7350   6.0958   6.2158   6.3606   6.5625   6.7249
     6.8447   7.0190

          k = 0.5338 0.5136-0.1321 ( 12086 PWs)   bands (ev):

   -47.1877 -47.1851 -34.7635 -34.7629 -23.4500 -23.4432 -23.4244 -23.3607
   -23.3297 -23.3157  -9.2362  -9.0460  -8.9200  -8.5350  -8.5204  -8.4454
     2.7785   2.9508   3.1929   3.6432   3.7874   3.9025   4.0622   4.4213
     4.6404   4.9518   5.3559   5.6929   6.3387   6.5248   6.5459   6.6801
     6.8411   6.9550

          k = 0.3558 0.4109-0.0660 ( 12104 PWs)   bands (ev):

   -47.1886 -47.1841 -34.7637 -34.7628 -23.4715 -23.4102 -23.4023 -23.3820
   -23.3611 -23.2962  -9.3455  -8.9129  -8.8239  -8.7092  -8.6311  -8.2752
     2.6474   3.1549   3.2863   3.4013   3.6017   3.9146   4.1642   4.3770
     4.6034   5.0785   5.3692   5.9426   6.2300   6.3682   6.6338   6.7670
     6.8540   6.9969

          k = 0.1779 0.3082 0.0000 ( 12119 PWs)   bands (ev):

   -47.1916 -47.1812 -34.7642 -34.7622 -23.4794 -23.4425 -23.4062 -23.3670
   -23.3435 -23.2792  -9.5895  -9.0937  -8.9850  -8.4689  -8.3686  -8.1385
     2.5328   2.8053   3.0377   3.1136   3.5101   3.8708   4.1366   4.3601
     5.0935   5.5177   5.9383   6.0277   6.3581   6.4608   6.6392   6.7251
     6.8069   7.0655

          k =-0.3558 0.2054 0.2642 ( 12113 PWs)   bands (ev):

   -47.1903 -47.1825 -34.7640 -34.7624 -23.4889 -23.4686 -23.4467 -23.3289
   -23.3149 -23.2701  -9.5599  -9.1532  -8.9372  -8.6047  -8.1940  -8.1699
     2.4333   2.6780   2.8636   3.0289   3.6777   3.9406   4.5758   4.9333
     5.2355   5.4972   5.7933   5.8752   5.9083   6.2649   6.4915   6.6341
     6.7399   6.9228

          k = 0.5338 0.7191-0.0660 ( 12094 PWs)   bands (ev):

   -47.1886 -47.1841 -34.7637 -34.7628 -23.4814 -23.4779 -23.4576 -23.3261
   -23.2953 -23.2821  -9.4254  -9.1530  -9.0688  -8.3935  -8.3107  -8.2725
     2.4730   2.6099   2.8466   3.0721   3.9422   4.2713   4.4218   4.8715
     5.0963   5.4262   5.6314   5.9069   6.0068   6.1470   6.3582   6.5222
     6.7022   6.9293

          k = 0.3558 0.6163 0.0000 ( 12124 PWs)   bands (ev):

   -47.1864 -47.1863 -34.7633 -34.7632 -23.4874 -23.4524 -23.4249 -23.3586
   -23.3155 -23.2842  -9.2838  -9.1678  -8.8975  -8.5765  -8.4737  -8.2640
     2.4869   2.7752   3.1594   3.5457   3.7168   3.8934   4.2970   4.7433
     4.8571   5.1994   5.6314   5.8314   6.1412   6.1853   6.3476   6.6618
     6.7387   6.9605

          k = 0.5338-0.3082-0.3963 ( 12062 PWs)   bands (ev):

   -47.1890 -47.1837 -34.7638 -34.7627 -23.4934 -23.4900 -23.4704 -23.3132
   -23.2822 -23.2695  -9.4959  -9.2012  -9.1168  -8.3409  -8.2175  -8.2117
     2.4076   2.4692   2.6684   2.8013   4.2576   4.5105   4.7604   5.0221
     5.1689   5.1911   5.7071   5.7770   6.0221   6.1361   6.2820   6.5421
     6.6465   6.8602

          k = 0.0000 0.0000 0.1981 ( 12115 PWs)   bands (ev):

   -47.1932 -47.1796 -34.7644 -34.7619 -23.4702 -23.4702 -23.4351 -23.3322
   -23.3322 -23.2717  -9.7428  -9.1433  -9.1433  -8.3143  -8.1313  -8.1313
     2.5703   2.5704   2.8629   3.0361   3.0362   3.8221   4.7079   4.7080
     4.8462   5.8502   6.0674   6.0676   6.2918   6.5754   6.5757   6.5961
     7.0753   7.0755

          k =-0.1779-0.1027 0.2642 ( 12136 PWs)   bands (ev):

   -47.1916 -47.1812 -34.7641 -34.7622 -23.4795 -23.4394 -23.4083 -23.3647
   -23.3445 -23.2798  -9.6043  -9.0765  -8.9840  -8.5171  -8.3344  -8.1431
     2.5109   2.8343   3.0603   3.3636   3.3859   3.9112   4.2969   4.3470
     4.8810   5.3880   5.8052   6.1248   6.1394   6.4592   6.5995   6.6883
     6.9378   7.0139

          k = 0.7117 0.4109-0.0660 ( 12131 PWs)   bands (ev):

   -47.1886 -47.1841 -34.7636 -34.7628 -23.4722 -23.4071 -23.3989 -23.3845
   -23.3634 -23.2962  -9.3531  -8.8921  -8.8712  -8.7022  -8.5988  -8.2904
     2.6119   3.0723   3.3934   3.5894   3.7453   4.0094   4.0434   4.3894
     4.5319   4.7573   5.4080   5.9273   6.2631   6.3883   6.6253   6.7318
     6.8514   6.8726

          k = 0.5338 0.3082 0.0000 ( 12082 PWs)   bands (ev):

   -47.1877 -47.1851 -34.7635 -34.7629 -23.4478 -23.4439 -23.4272 -23.3583
   -23.3295 -23.3170  -9.2367  -9.0517  -8.9113  -8.5478  -8.5100  -8.4455
     2.8906   3.0085   3.0556   3.3641   3.7705   3.9658   4.2443   4.4823
     4.7757   4.9153   5.4073   5.5181   6.3458   6.5166   6.5406   6.7269
     6.7286   6.9639

          k = 0.3558 0.2054 0.0660 ( 12120 PWs)   bands (ev):

   -47.1909 -47.1819 -34.7641 -34.7623 -23.4752 -23.4572 -23.4020 -23.3738
   -23.3289 -23.2820  -9.5437  -9.1218  -8.8279  -8.6908  -8.2567  -8.2079
     2.5942   2.8264   2.8557   3.4334   3.4734   3.6901   4.1824   4.7381
     4.8959   5.5811   5.7429   6.0414   6.2773   6.3586   6.4803   6.7671
     6.8259   7.0106

          k =-0.1779 0.1027 0.3302 ( 12127 PWs)   bands (ev):

   -47.1909 -47.1819 -34.7640 -34.7623 -23.4748 -23.4557 -23.4006 -23.3745
   -23.3285 -23.2828  -9.5634  -9.1014  -8.8223  -8.7170  -8.2678  -8.1970
     2.5806   2.7976   3.0951   3.4572   3.4884   3.7412   4.2416   4.7589
     4.7706   5.4072   5.5780   6.0550   6.1979   6.3269   6.3499   6.6629
     6.9346   6.9957

          k = 0.7117 0.6163 0.0000 ( 12111 PWs)   bands (ev):

   -47.1890 -47.1838 -34.7637 -34.7627 -23.4837 -23.4446 -23.4312 -23.3483
   -23.3295 -23.2826  -9.4364  -9.0115  -8.9834  -8.5711  -8.4584  -8.2126
     2.5109   2.8805   3.1028   3.4640   3.6127   4.0504   4.2120   4.7099
     4.8862   5.1840   5.6884   5.8041   6.0613   6.2450   6.3705   6.6497
     6.7601   6.9013

          k = 0.5338 0.5136 0.0660 ( 12107 PWs)   bands (ev):

   -47.1864 -47.1863 -34.7633 -34.7631 -23.4757 -23.4750 -23.3905 -23.3891
   -23.2962 -23.2959  -9.2492  -9.2327  -8.8080  -8.7025  -8.3473  -8.3286
     2.5909   2.6624   3.1628   3.4186   3.8634   4.0900   4.3022   4.5412
     4.8802   5.2333   5.6681   5.8321   6.0091   6.1918   6.4043   6.5376
     6.7766   6.8801

          k = 0.3558 0.4109 0.1321 ( 12106 PWs)   bands (ev):

   -47.1890 -47.1838 -34.7637 -34.7627 -23.4838 -23.4456 -23.4326 -23.3484
   -23.3291 -23.2823  -9.4238  -9.0237  -8.9711  -8.5691  -8.4665  -8.2041
     2.5059   2.9023   3.0132   3.2790   3.6867   4.0459   4.1292   4.7458
     4.9043   5.3511   5.6104   5.9496   6.1487   6.3245   6.4665   6.5611
     6.7482   6.9861

          k = 0.7117-0.4109-0.3302 ( 12092 PWs)   bands (ev):

   -47.1886 -47.1841 -34.7637 -34.7627 -23.4805 -23.4774 -23.4580 -23.3251
   -23.2954 -23.2828  -9.4351  -9.1591  -9.0579  -8.3971  -8.3138  -8.2709
     2.5532   2.6506   2.7649   3.0728   4.0128   4.1747   4.6118   4.8043
     5.2049   5.3752   5.6434   5.7221   6.0301   6.1804   6.2821   6.4116
     6.5954   6.9174

          k = 0.5338-0.5136-0.2642 ( 12097 PWs)   bands (ev):

   -47.1877 -47.1851 -34.7635 -34.7629 -23.4898 -23.4860 -23.4333 -23.3466
   -23.2833 -23.2817  -9.3689  -9.2385  -8.9731  -8.5037  -8.3027  -8.2419
     2.4644   2.5008   2.9104   3.3348   3.7077   4.4392   4.6197   4.7369
     5.2108   5.3568   5.5967   5.6506   6.0181   6.1510   6.3746   6.4798
     6.5843   6.9021

          k = 0.3558-0.6163-0.1981 ( 12104 PWs)   bands (ev):

   -47.1864 -47.1863 -34.7633 -34.7632 -23.4754 -23.4754 -23.3902 -23.3901
   -23.2959 -23.2959  -9.2379  -9.2379  -8.7608  -8.7605  -8.3332  -8.3331
     2.6052   2.6053   3.3098   3.3099   3.9446   3.9448   4.3758   4.3759
     5.0518   5.0520   5.8038   5.8039   6.1371   6.1373   6.4975   6.4976
     6.8574   6.8574

          k = 0.5338-0.3082-0.1981 ( 12104 PWs)   bands (ev):

   -47.1886 -47.1841 -34.7637 -34.7627 -23.4809 -23.4778 -23.4585 -23.3253
   -23.2953 -23.2826  -9.4257  -9.1585  -9.0620  -8.3993  -8.3022  -8.2762
     2.5392   2.6426   2.7642   2.9682   4.0236   4.2915   4.5363   4.7418
     5.1238   5.3147   5.7772   5.9936   6.1137   6.2012   6.2359   6.3861
     6.5861   6.9406

          k = 0.0000 0.0000 0.3963 ( 12088 PWs)   bands (ev):

   -47.1903 -47.1825 -34.7639 -34.7624 -23.4417 -23.4417 -23.4022 -23.3621
   -23.3621 -23.3078  -9.4642  -8.9450  -8.9450  -8.6430  -8.3629  -8.3629
     2.9273   2.9273   3.2954   3.5694   3.5695   4.1393   4.1617   4.1618
     4.3465   5.2705   5.2707   5.5960   6.1148   6.5591   6.6283   6.6287
     7.0013   7.0016

          k = 0.8896 0.5136 0.0660 ( 12114 PWs)   bands (ev):

   -47.1887 -47.1841 -34.7636 -34.7627 -23.4708 -23.4067 -23.3984 -23.3830
   -23.3640 -23.2970  -9.3708  -8.8913  -8.8507  -8.7221  -8.6107  -8.2816
     2.7020   3.2012   3.3910   3.6235   3.6858   3.9879   4.0743   4.4788
     4.5832   4.6519   5.3303   5.7884   6.0956   6.2252   6.5817   6.7697
     6.8455   6.8566

          k = 0.7117 0.4109 0.1321 ( 12106 PWs)   bands (ev):

   -47.1864 -47.1864 -34.7633 -34.7631 -23.4873 -23.4498 -23.4266 -23.3557
   -23.3174 -23.2843  -9.2914  -9.1857  -8.8855  -8.5578  -8.4847  -8.2731
     2.5037   2.9644   2.9954   3.5278   3.8338   3.8700   4.5118   4.5894
     5.0354   5.1727   5.6266   5.6359   5.8892   6.2135   6.3910   6.5163
     6.6494   6.9203

          k = 0.8896-0.5136-0.2642 ( 12098 PWs)   bands (ev):

   -47.1877 -47.1851 -34.7634 -34.7629 -23.4471 -23.4421 -23.4251 -23.3577
   -23.3303 -23.3179  -9.2667  -9.0623  -8.8919  -8.5387  -8.5381  -8.4345
     2.9592   3.1063   3.1241   3.6942   3.7480   3.9480   4.1383   4.4153
     4.7818   4.8481   5.1700   5.4532   6.2189   6.2826   6.5326   6.6906
     6.6958   6.9209

          k = 0.7117-0.6163-0.1981 ( 12106 PWs)   bands (ev):

   -47.1864 -47.1864 -34.7633 -34.7631 -23.4747 -23.4747 -23.3893 -23.3892
   -23.2964 -23.2963  -9.2516  -9.2516  -8.7509  -8.7506  -8.3393  -8.3392
     2.6697   2.6697   3.2878   3.2879   4.0334   4.0336   4.3843   4.3845
     5.1350   5.1352   5.6219   5.6221   6.0157   6.0159   6.4280   6.4281
     6.8069   6.8071

          k = 0.0000 0.0000-0.5944 ( 12058 PWs)   bands (ev):

   -47.1864 -47.1864 -34.7632 -34.7631 -23.4023 -23.4023 -23.4023 -23.4023
   -23.3558 -23.3558  -9.0660  -9.0657  -8.6623  -8.6623  -8.6620  -8.6620
     3.4796   3.4796   3.4800   3.4800   3.8138   3.8142   4.3813   4.3813
     4.3819   4.3819   4.7679   4.7681   6.3958   6.3962   6.8134   6.8134
     6.8138   6.8138

          k =-0.3558 0.0000-0.1981 ( 12128 PWs)   bands (ev):

   -47.1909 -47.1819 -34.7640 -34.7623 -23.4760 -23.4557 -23.4013 -23.3741
   -23.3296 -23.2818  -9.5488  -9.1123  -8.8464  -8.6791  -8.2541  -8.2133
     2.5078   2.8165   3.0619   3.3908   3.4714   3.7578   4.1987   4.5906
     4.9482   5.4176   5.7350   6.0958   6.2159   6.3605   6.5626   6.7249
     6.8447   7.0190

          k = 0.5338-0.5136 0.1321 ( 12086 PWs)   bands (ev):

   -47.1877 -47.1851 -34.7635 -34.7629 -23.4500 -23.4432 -23.4244 -23.3607
   -23.3297 -23.3157  -9.2362  -9.0460  -8.9200  -8.5350  -8.5203  -8.4454
     2.7786   2.9508   3.1930   3.6432   3.7875   3.9025   4.0622   4.4211
     4.6405   4.9517   5.3560   5.6928   6.3388   6.5247   6.5458   6.6802
     6.8411   6.9550

          k = 0.3558-0.4109 0.0660 ( 12104 PWs)   bands (ev):

   -47.1886 -47.1841 -34.7637 -34.7628 -23.4715 -23.4102 -23.4023 -23.3820
   -23.3611 -23.2962  -9.3455  -8.9129  -8.8239  -8.7091  -8.6311  -8.2752
     2.6474   3.1549   3.2864   3.4014   3.6016   3.9145   4.1643   4.3771
     4.6035   5.0784   5.3691   5.9426   6.2300   6.3682   6.6338   6.7670
     6.8540   6.9969

          k = 0.5338-0.7191 0.0660 ( 12094 PWs)   bands (ev):

   -47.1886 -47.1841 -34.7637 -34.7628 -23.4814 -23.4779 -23.4576 -23.3261
   -23.2953 -23.2821  -9.4254  -9.1531  -9.0688  -8.3935  -8.3107  -8.2726
     2.4730   2.6099   2.8466   3.0721   3.9422   4.2713   4.4217   4.8714
     5.0964   5.4261   5.6314   5.9070   6.0069   6.1470   6.3581   6.5223
     6.7022   6.9292

          k = 0.7117-0.6163-0.0000 ( 12111 PWs)   bands (ev):

   -47.1890 -47.1838 -34.7637 -34.7627 -23.4837 -23.4446 -23.4312 -23.3483
   -23.3295 -23.2826  -9.4364  -9.0116  -8.9834  -8.5711  -8.4584  -8.2127
     2.5109   2.8804   3.1029   3.4640   3.6127   4.0503   4.2119   4.7101
     4.8860   5.1841   5.6885   5.8041   6.0611   6.2451   6.3705   6.6499
     6.7600   6.9013

          k = 0.5338-0.5136-0.0660 ( 12107 PWs)   bands (ev):

   -47.1864 -47.1863 -34.7633 -34.7631 -23.4757 -23.4750 -23.3905 -23.3891
   -23.2962 -23.2959  -9.2493  -9.2327  -8.8079  -8.7025  -8.3473  -8.3287
     2.5909   2.6623   3.1629   3.4187   3.8633   4.0900   4.3022   4.5411
     4.8803   5.2333   5.6679   5.8321   6.0092   6.1919   6.4042   6.5376
     6.7766   6.8801

          k = 0.3558-0.4109-0.1321 ( 12106 PWs)   bands (ev):

   -47.1890 -47.1838 -34.7637 -34.7627 -23.4838 -23.4456 -23.4326 -23.3484
   -23.3291 -23.2823  -9.4238  -9.0237  -8.9711  -8.5691  -8.4666  -8.2041
     2.5059   2.9023   3.0131   3.2790   3.6867   4.0459   4.1292   4.7458
     4.9043   5.3511   5.6103   5.9495   6.1488   6.3245   6.4665   6.5611
     6.7482   6.9861

          k = 0.5338 0.5136 0.2642 ( 12097 PWs)   bands (ev):

   -47.1877 -47.1851 -34.7635 -34.7629 -23.4898 -23.4861 -23.4333 -23.3466
   -23.2833 -23.2817  -9.3689  -9.2385  -8.9731  -8.5036  -8.3027  -8.2419
     2.4644   2.5008   2.9104   3.3348   3.7077   4.4392   4.6197   4.7368
     5.2109   5.3568   5.5966   5.6505   6.0182   6.1511   6.3746   6.4798
     6.5841   6.9021

     highest occupied level (ev):     7.0755

!    total energy              =    -937.94748524 Ry
     total all-electron energy =      -937.947485 Ry
     estimated scf accuracy    <          8.5E-11 Ry

     The total energy is the sum of the following terms:
     one-electron contribution =    -139.39709163 Ry
     hartree contribution      =     107.30595815 Ry
     xc contribution           =     -78.58723841 Ry
     ewald contribution        =    -330.58013112 Ry
     one-center paw contrib.   =    -496.68898223 Ry

     convergence has been achieved in  19 iterations

     Writing all to output data dir out/pwscf.save/ :
     XML data file, charge density, pseudopotentials, collected wavefunctions

     init_run     :     47.64s CPU     27.16s WALL (       1 calls)
     electrons    :   1093.69s CPU    596.11s WALL (       1 calls)

     Called by init_run:
     wfcinit      :     40.50s CPU     21.18s WALL (       1 calls)
     potinit      :      3.60s CPU      2.44s WALL (       1 calls)
     hinit0       :      2.21s CPU      2.12s WALL (       1 calls)

     Called by electrons:
     c_bands      :    856.85s CPU    444.67s WALL (      19 calls)
     sum_band     :    159.00s CPU     95.34s WALL (      19 calls)
     v_of_rho     :     19.13s CPU     11.06s WALL (      20 calls)
     newd         :     21.84s CPU     23.07s WALL (      20 calls)
     PAW_pot      :     35.58s CPU     21.66s WALL (      20 calls)
     mix_rho      :      2.78s CPU      1.53s WALL (      19 calls)

     Called by c_bands:
     init_us_2    :     20.25s CPU     10.39s WALL (    1560 calls)
     cegterg      :    817.71s CPU    424.54s WALL (     760 calls)

     Called by *egterg:
     cdiaghg      :     20.75s CPU     10.73s WALL (    3539 calls)
     h_psi        :    695.36s CPU    362.00s WALL (    3579 calls)
     s_psi        :     25.81s CPU     13.14s WALL (    3579 calls)
     g_psi        :      9.51s CPU      4.85s WALL (    2779 calls)

     Called by h_psi:
     h_psi:calbec :     36.92s CPU     19.15s WALL (    3579 calls)
     vloc_psi     :    625.96s CPU    326.25s WALL (    3579 calls)
                                        0.00s GPU  (    3579 calls)
     add_vuspsi   :     28.66s CPU     14.60s WALL (    3579 calls)

     General routines
     calbec       :     48.29s CPU     25.04s WALL (    4339 calls)
     fft          :     14.84s CPU      9.18s WALL (     258 calls)
     ffts         :      1.56s CPU      1.19s WALL (      39 calls)
     fftw         :    633.12s CPU    331.13s WALL (  186604 calls)
     interpolate  :      2.37s CPU      1.70s WALL (      20 calls)

     Parallel routines

     PWSCF        :  19m 3.08s CPU  10m24.95s WALL


   This run was terminated on:  14: 6:16  21Jul2026            

=------------------------------------------------------------------------------=
   JOB DONE.
=------------------------------------------------------------------------------=
