generated by RamanPy, mode 5 displacement -0.01
1.0
   2.5690887290    1.4832640690    4.6081534370
  -2.5690887290    1.4832640690    4.6081534370
   0.0000000000   -2.9665281390    4.6081534370
 Li Nb O
 2 2 6
Cartesian
   0.0000688100   -0.0008807899    9.9252699900
   0.0000472500    0.0008801599    3.0130399600
   0.0012415999   -0.0002644800    0.0079798700
   0.0012351299    0.0002929600    6.9202101600
   1.5628996401   -0.1599624404    8.3280724403
  -0.9273921096   -1.2728877099    8.3336768297
  -0.6385513502    1.4354303201    8.3313095200
  -1.6489501296    0.2114340999    6.0243267203
   1.0043823401    1.3156175304    6.0299175197
   0.6415840898   -1.5297004901    6.0265769600
