
     Program PWSCF v.7.5 starts on 19Dec2025 at 16:47:30 

     This program is part of the open-source Quantum ESPRESSO suite
     for quantum simulation of materials; please cite
         "P. Giannozzi et al., J. Phys.:Condens. Matter 21 395502 (2009);
         "P. Giannozzi et al., J. Phys.:Condens. Matter 29 465901 (2017);
         "P. Giannozzi et al., J. Chem. Phys. 152 154105 (2020);
          URL http://www.quantum-espresso.org", 
     in publications or presentations arising from this work. More details at
     http://www.quantum-espresso.org/quote

     Parallel version (MPI), running on    96 processors

     MPI processes distributed on     1 nodes
     351160 MiB available memory on the printing compute node when the environment starts
 
     Reading input from scf.in
Warning: card &CELL ignored

     Current dimensions of program PWSCF are:
     Max number of different atomic species (ntypx) = 10
     Max number of k-points (npk) =  40000
     Max angular momentum in pseudopotentials (lmaxx) =  4
 
     K-points division:     npool     =       3
     R & G space division:  proc/nbgrp/npool/nimage =      32
     Subspace diagonalization in iterative solution of the eigenvalue problem:
     a serial algorithm will be used

 
     Parallelization info
     --------------------
     sticks:   dense  smooth     PW     G-vecs:    dense   smooth      PW
     Min          87      87     25                 2997     2997     451
     Max          88      88     26                 3001     3001     454
     Sum        2813    2813    803                96001    96001   14483
 
     Using Slab Decomposition
 


     bravais-lattice index     =            0
     lattice parameter (alat)  =      10.3566  a.u.
     unit-cell volume          =     711.0045 (a.u.)^3
     number of atoms/cell      =           10
     number of atomic types    =            3
     number of electrons       =        68.00
     number of Kohn-Sham states=           60
     kinetic-energy cutoff     =     100.0000  Ry
     charge density cutoff     =     400.0000  Ry
     scf convergence threshold =      1.0E-10
     mixing beta               =       0.7000
     number of iterations used =            8  plain     mixing
     Exchange-correlation= PBESOL
                           (   1   4  10   8   0   0   0)

     celldm(1)=  10.356556  celldm(2)=   0.000000  celldm(3)=   0.000000
     celldm(4)=   0.000000  celldm(5)=   0.000000  celldm(6)=   0.000000

     crystal axes: (cart. coord. in units of alat)
               a(1) = (   0.468773   0.270646   0.840834 )  
               a(2) = (  -0.468773   0.270646   0.840834 )  
               a(3) = (   0.000000  -0.541292   0.840834 )  

     reciprocal axes: (cart. coord. in units 2 pi/alat)
               b(1) = (  1.066614  0.615810  0.396432 )  
               b(2) = ( -1.066614  0.615810  0.396432 )  
               b(3) = (  0.000000 -1.231620  0.396432 )  


     PseudoPot. # 1 for Li read from file:
     ./Li.upf
     MD5 check sum: dc9f6e608df41cc7e5665a263ba47fe0
     Pseudo is Norm-conserving, Zval =  3.0
     Generated using ONCVPSP code by D. R. Hamann
     Using radial grid of 1944 points,  4 beta functions with: 
                l(1) =   0
                l(2) =   0
                l(3) =   1
                l(4) =   1

     PseudoPot. # 2 for Nb read from file:
     ./Nb.upf
     MD5 check sum: f0922cae2acd95e7020481ef16123e2a
     Pseudo is Norm-conserving + core correction, Zval = 13.0
     Generated using ONCVPSP code by D. R. Hamann
     Using radial grid of 1660 points,  6 beta functions with: 
                l(1) =   0
                l(2) =   0
                l(3) =   1
                l(4) =   1
                l(5) =   2
                l(6) =   2

     PseudoPot. # 3 for O  read from file:
     ./O.upf
     MD5 check sum: f226cbcd508cec715ff87a8f75a1dfba
     Pseudo is Norm-conserving + core correction, Zval =  6.0
     Generated using ONCVPSP code by D. R. Hamann
     Using radial grid of  936 points,  5 beta functions with: 
                l(1) =   0
                l(2) =   0
                l(3) =   1
                l(4) =   1
                l(5) =   2

     atomic species   valence    mass     pseudopotential
     Li                3.00     6.94100     Li( 1.00)
     Nb               13.00    92.90600     Nb( 1.00)
     O                 6.00    16.00000     O ( 1.00)

     No symmetry found



   Cartesian axes

     site n.     atom                  positions (alat units)
         1        Li     tau(   1) = (  -0.0000003  -0.0000002   1.8109137  )
         2        Li     tau(   2) = (  -0.0000002   0.0000003   0.5498972  )
         3        Nb     tau(   3) = (   0.0000000  -0.0000002   0.0014884  )
         4        Nb     tau(   4) = (   0.0000001   0.0000002   1.2626754  )
         5        O      tau(   5) = (   0.2853240  -0.0299059   1.5201384  )
         6        O      tau(   6) = (  -0.1685611  -0.2321446   1.5201388  )
         7        O      tau(   7) = (  -0.1167630   0.2620506   1.5201384  )
         8        O      tau(   8) = (  -0.3002313   0.0384574   1.0997110  )
         9        O      tau(   9) = (   0.1834210   0.2407793   1.0997113  )
        10        O      tau(  10) = (   0.1168102  -0.2792369   1.0997114  )

     number of k points=   216  Gaussian smearing, width (Ry)=  0.0200

     Number of k-points >= 100: set verbosity='high' to print them.

     Dense  grid:    96001 G-vectors     FFT dimensions: (  72,  72,  72)

     Estimated max dynamical RAM per process >      35.27 MB

     Estimated total dynamical RAM >       3.26 GB

     Initial potential from superposition of free atoms

     starting charge      67.9863, renormalised to      68.0000
     Starting wfcs are   48 randomized atomic wfcs +   12 random wfcs

     total cpu time spent up to now is        6.5 secs

     Self-consistent Calculation

     iteration #  1     ecut=   100.00 Ry     beta= 0.70
     Davidson diagonalization with overlap
     ethr =  1.00E-02,  avg # of iterations =  5.5

     total cpu time spent up to now is       65.6 secs

     total energy              =    -474.18517489 Ry
     estimated scf accuracy    <       4.37920973 Ry

     iteration #  2     ecut=   100.00 Ry     beta= 0.70
     Davidson diagonalization with overlap
     ethr =  6.44E-03,  avg # of iterations =  2.0

     total cpu time spent up to now is       73.3 secs

     total energy              =    -472.17952483 Ry
     estimated scf accuracy    <      20.54236484 Ry

     iteration #  3     ecut=   100.00 Ry     beta= 0.70
     Davidson diagonalization with overlap
     ethr =  6.44E-03,  avg # of iterations =  2.0

     total cpu time spent up to now is       80.4 secs

     total energy              =    -476.45160437 Ry
     estimated scf accuracy    <       0.57304485 Ry

     iteration #  4     ecut=   100.00 Ry     beta= 0.70
     Davidson diagonalization with overlap
     ethr =  8.43E-04,  avg # of iterations =  1.0

     total cpu time spent up to now is      139.5 secs

     total energy              =    -476.34696006 Ry
     estimated scf accuracy    <       0.25903994 Ry

     iteration #  5     ecut=   100.00 Ry     beta= 0.70
     Davidson diagonalization with overlap
     ethr =  3.81E-04,  avg # of iterations =  1.2

     total cpu time spent up to now is      148.3 secs

     total energy              =    -476.39844799 Ry
     estimated scf accuracy    <       0.00258030 Ry

     iteration #  6     ecut=   100.00 Ry     beta= 0.70
     Davidson diagonalization with overlap
     ethr =  3.79E-06,  avg # of iterations =  7.1

     total cpu time spent up to now is      164.4 secs

     total energy              =    -476.39887085 Ry
     estimated scf accuracy    <       0.00025690 Ry

     iteration #  7     ecut=   100.00 Ry     beta= 0.70
     Davidson diagonalization with overlap
     ethr =  3.78E-07,  avg # of iterations =  1.0

     total cpu time spent up to now is      171.1 secs

     total energy              =    -476.39888106 Ry
     estimated scf accuracy    <       0.00010200 Ry

     iteration #  8     ecut=   100.00 Ry     beta= 0.70
     Davidson diagonalization with overlap
     ethr =  1.50E-07,  avg # of iterations =  1.0

     total cpu time spent up to now is      179.4 secs

     total energy              =    -476.39889347 Ry
     estimated scf accuracy    <       0.00000529 Ry

     iteration #  9     ecut=   100.00 Ry     beta= 0.70
     Davidson diagonalization with overlap
     ethr =  7.78E-09,  avg # of iterations =  2.0

     total cpu time spent up to now is      189.4 secs

     total energy              =    -476.39889499 Ry
     estimated scf accuracy    <       0.00000076 Ry

     iteration # 10     ecut=   100.00 Ry     beta= 0.70
     Davidson diagonalization with overlap
     ethr =  1.11E-09,  avg # of iterations =  1.0

     total cpu time spent up to now is      236.1 secs

     total energy              =    -476.39889493 Ry
     estimated scf accuracy    <       0.00000042 Ry

     iteration # 11     ecut=   100.00 Ry     beta= 0.70
     Davidson diagonalization with overlap
     ethr =  6.21E-10,  avg # of iterations =  1.0

     total cpu time spent up to now is      240.4 secs

     total energy              =    -476.39889497 Ry
     estimated scf accuracy    <       0.00000002 Ry

     iteration # 12     ecut=   100.00 Ry     beta= 0.70
     Davidson diagonalization with overlap
     ethr =  3.14E-11,  avg # of iterations =  2.0

     total cpu time spent up to now is      245.3 secs

     total energy              =    -476.39889497 Ry
     estimated scf accuracy    <          2.8E-09 Ry

     iteration # 13     ecut=   100.00 Ry     beta= 0.70
     Davidson diagonalization with overlap
     ethr =  4.17E-12,  avg # of iterations =  1.2

     total cpu time spent up to now is      249.9 secs

     End of self-consistent calculation

     Number of k-points >= 100: set verbosity='high' to print the bands.

     the Fermi energy is     9.2375 ev

!    total energy              =    -476.39889497 Ry
     estimated scf accuracy    <          8.9E-11 Ry
     smearing contrib. (-TS)   =      -0.00000000 Ry
     internal energy E=F+TS    =    -476.39889497 Ry

     The total energy is F=E-TS. E is the sum of the following terms:
     one-electron contribution =    -142.20042703 Ry
     hartree contribution      =     103.98571007 Ry
     xc contribution           =    -108.02122196 Ry
     ewald contribution        =    -330.16295605 Ry

     convergence has been achieved in  13 iterations

     Writing all to output data dir out/pwscf.save/ :
     XML data file, charge density, pseudopotentials, collected wavefunctions
 
     init_run     :      3.01s CPU      3.18s WALL (       1 calls)
     electrons    :    241.31s CPU    243.48s WALL (       1 calls)

     Called by init_run:
     wfcinit      :      2.84s CPU      2.92s WALL (       1 calls)
     potinit      :      0.02s CPU      0.02s WALL (       1 calls)
     hinit0       :      0.12s CPU      0.21s WALL (       1 calls)

     Called by electrons:
     c_bands      :    224.18s CPU    226.07s WALL (      13 calls)
     sum_band     :     16.01s CPU     16.25s WALL (      13 calls)
     v_of_rho     :      0.72s CPU      0.73s WALL (      14 calls)
     mix_rho      :      0.16s CPU      0.17s WALL (      13 calls)

     Called by c_bands:
     init_us_2    :      0.73s CPU      0.77s WALL (    1944 calls)
     cegterg      :     62.92s CPU     63.90s WALL (     936 calls)

     Called by *egterg:
     cdiaghg      :     10.55s CPU     10.65s WALL (    2959 calls)
     h_psi        :     48.69s CPU     49.56s WALL (    3031 calls)
     g_psi        :      0.08s CPU      0.08s WALL (    2023 calls)

     Called by h_psi:
     h_psi:calbec :      2.45s CPU      2.53s WALL (    3031 calls)
     vloc_psi     :     44.87s CPU     45.65s WALL (    3031 calls)
                                        0.00s GPU  (    3031 calls)
     add_vuspsi   :      1.22s CPU      1.24s WALL (    3031 calls)

     General routines
     calbec       :      2.44s CPU      2.52s WALL (    3031 calls)
     fft          :      0.39s CPU      0.48s WALL (     140 calls)
     ffts         :      0.07s CPU      0.07s WALL (      13 calls)
     fftw         :     47.85s CPU     48.67s WALL (  317834 calls)
 
     Parallel routines
 
     PWSCF        :   4m 7.73s CPU   4m12.54s WALL

 
   This run was terminated on:  16:51:42  19Dec2025            

=------------------------------------------------------------------------------=
   JOB DONE.
=------------------------------------------------------------------------------=
