generated by RamanPy, mode 51 displacement -0.01
1.0
  15.0000000000    0.0000000000    0.0000000000
   0.0000000000   15.0000000000    0.0000000000
   0.0000000000    0.0000000000   25.0000000000
 N C H
 4 18 12
Cartesian
   8.6372050100    8.0000195000    7.6009399503
  11.3628170900    8.0000292300    7.6009948403
   8.5705664700    7.9999893700   12.4075785003
  11.4293632300    7.9999908700   12.4075541303
   9.2746469297    7.9999802600   11.2709434200
  10.7252616403    7.9999795100   11.2709454400
   9.2745075202    7.9999998600    8.8327668399
  10.7254515898    7.9999989700    8.8327818399
   8.5873240200    7.9999905300   10.0250419996
  11.4126149500    7.9999909900   10.0250608696
   9.2769127702    7.9999819800   13.5641020202
  10.7230246698    7.9999784600   13.5640834802
   9.2941869599    8.0000034100    6.3773605801
  10.7058791801    8.0000019500    6.3773793601
   8.5872839301    7.9999870000   14.8080939299
  11.4126688999    7.9999960100   14.8080666099
   8.6048833698    7.9999825500    5.1631425799
  11.3952115102    7.9999873200    5.1631850199
   9.2897939100    8.0000017300   15.9944391799
  10.7102377500    7.9999944800   15.9944404699
   9.3022425000    7.9999924800    3.9528230499
  10.6979086800    8.0000120100    3.9528242699
   7.4959554000    7.9999977500   10.0443575595
  12.5039843800    8.0000077700   10.0444167595
   7.6236769800    8.0000299500    7.5994737402
  12.3763262500    8.0000309500    7.5995678202
   7.4975059100    8.0000155100   14.7829369999
  12.5024690800    7.9999927900   14.7828625099
   7.5120613800    8.0000102900    5.1712051299
  12.4880644900    8.0000311100    5.1712757199
   8.7540405100    8.0000103200   16.9439456700
  11.2459892100    8.0000178200   16.9439337500
   8.7503536700    7.9999937300    3.0125079200
  11.2497796700    7.9999897800    3.0024973100
