generated by RamanPy, mode 31 displacement -0.01
1.0
  15.0000000000    0.0000000000    0.0000000000
   0.0000000000   15.0000000000    0.0000000000
   0.0000000000    0.0000000000   25.0000000000
 N C H
 4 18 12
Cartesian
   8.6381717799    8.0000198700    7.6029980400
  11.3618323201    8.0000299900    7.6030390000
   8.5716979998    7.9999900500   12.4081799802
  11.4282205602    7.9999901400   12.4081678402
   9.2731564799    7.9999795800   11.2752427494
  10.7267577901    7.9999801500   11.2752485194
   9.2750019602    7.9999999700    8.8303499403
  10.7249658198    8.0000000700    8.8303623003
   8.5860140702    7.9999899900   10.0216348301
  11.4139196098    7.9999897000   10.0216589501
   9.2773749001    7.9999802400   13.5645204301
  10.7225657699    7.9999800900   13.5645113301
   9.2914838902    7.9999998200    6.3781639300
  10.7085939698    7.9999999000    6.3781667700
   8.5875981701    7.9999899600   14.8057884703
  11.4123719799    7.9999897800   14.8057606303
   8.6038903800    7.9999898100    5.1638110998
  11.3962146600    7.9999999000    5.1638474698
   9.2904427499    7.9999998200   15.9948960398
  10.7095749601    8.0000003200   15.9948769598
   9.3030490599    7.9999899200    3.9512740801
  10.6970909101    8.0000000700    3.9512966701
   7.4954327101    7.9999995500   10.0405753200
  12.5045054199    8.0000102000   10.0406298000
   7.6239169000    8.0000297800    7.6037954496
  12.3760814400    8.0000298000    7.6038844596
   7.4975651300    8.0000100200   14.7834454198
  12.5024150100    8.0000018300   14.7833711898
   7.5117666600    8.0000001900    5.1707351200
  12.4883617700    8.0000097900    5.1708034200
   8.7544326900    8.0000108200   16.9442232999
  11.2456009000    8.0000088800   16.9442012099
   8.7502703100    8.0000000600    3.0122234300
  11.2498750600    8.0000094400    3.0022276200
