generated by RamanPy, mode 74 displacement -0.01
1.0
  15.0000000000    0.0000000000    0.0000000000
   0.0000000000   15.0000000000    0.0000000000
   0.0000000000    0.0000000000   25.0000000000
 N C H
 4 18 12
Cartesian
   8.6372474300    8.0012068897    7.6032048600
  11.3627629600    7.9988426903    7.6032452000
   8.5704519100    8.0016876396   12.4096589000
  11.4294683400    7.9982936304   12.4096471100
   9.2726290900    8.0012926697   11.2710765200
  10.7272804000    7.9986684203   11.2710855700
   9.2762274100    7.9994135601    8.8322008500
  10.7237334400    8.0005865599    8.8322108700
   8.5872804600    7.9992493202   10.0223535000
  11.4126600600    8.0007287698   10.0223734000
   9.2780223800    7.9981199704   13.5653798600
  10.7219182300    8.0018379096   13.5653685700
   9.2931476700    7.9981664504    6.3782415800
  10.7069217900    8.0018330296    6.3782521100
   8.5882078700    7.9972911906   14.8075729000
  11.4117614500    8.0026919894   14.8075418400
   8.6037652000    7.9986016803    5.1627652700
  11.3963447800    8.0013892397    5.1628061100
   9.2900706200    8.0034113892   15.9936265600
  10.7099474700    7.9965891308   15.9936052400
   9.3020405000    8.0023894295    3.9518712500
  10.6981000900    7.9975982805    3.9518917900
   7.4958800400    7.9994614201   10.0408077700
  12.5040600800    8.0005467499   10.0408680500
   7.6236865000    7.9999782500    7.6012480500
  12.3763136000    8.0000841700    7.6013379400
   7.4978124300    7.9994630101   14.7821507000
  12.5021674200    8.0005502499   14.7820807900
   7.5117186500    7.9997055101    5.1707211100
  12.4884113700    8.0003056199    5.1707814200
   8.7540888500    8.0025710394   16.9436708900
  11.2459409200    7.9974486206   16.9436503800
   8.7503918700    8.0015554096    3.0121523200
  11.2497487100    7.9984531504    3.0021526600
