generated by RamanPy, mode 62 displacement 0.01
1.0
  15.0000000000    0.0000000000    0.0000000000
   0.0000000000   15.0000000000    0.0000000000
   0.0000000000    0.0000000000   25.0000000000
 N C H
 4 18 12
Cartesian
   8.6333638621    8.0000233900    7.6031204600
  11.3666373679    8.0000242200    7.6031626900
   8.5713547395    7.9999139400   12.4103222596
  11.4285859105    8.0000671300   12.4103188896
   9.2724090101    8.0005440697   11.2714893698
  10.7274967999    7.9994224803   11.2715130098
   9.2744390610    8.0001007899    8.8328066197
  10.7255174690    7.9999059501    8.8328262197
   8.5849668312    7.9999745400   10.0236278593
  11.4149570688    7.9999883700   10.0236667993
   9.2789226995    7.9995778302   13.5653105000
  10.7210221805    8.0003802698   13.5652943200
   9.2916761008    8.0002518599    6.3775243804
  10.7084015192    7.9997671301    6.3775311904
   8.5897064092    8.0001602199   14.8068014604
  11.4102641708    7.9998373301   14.8067495304
   8.6007416816    7.9999279300    5.1616552806
  11.3993625284    8.0000567400    5.1616821106
   9.2902403299    7.9997358701   15.9933867301
  10.7097744901    8.0002539399   15.9933395801
   9.3018354001    8.0000806600    3.9521615098
  10.6982937199    7.9998815201    3.9521740998
   7.4952048604    7.9995822802   10.0417468895
  12.5047309596    8.0004346198   10.0418141995
   7.6226304306    7.9999583900    7.6011611600
  12.3773669794    8.0001215400    7.6012500600
   7.4982642798    8.0002756099   14.7815957903
  12.5017162202    7.9997309401   14.7815205603
   7.5108296605    7.9998811301    5.1699969804
  12.4892988495    8.0001602499    5.1700487104
   8.7538428501    7.9999824300   16.9434248301
  11.2461863499    8.0000350300   16.9433959801
   8.7510289397    8.0000372200    3.0118133002
  11.2491166503    8.0000459200    3.0018152602
