generated by RamanPy, mode 10 displacement 0.01
1.0
   2.5690887290    1.4832640690    4.6081534370
  -2.5690887290    1.4832640690    4.6081534370
   0.0000000000   -2.9665281390    4.6081534370
 Li Nb O
 2 2 6
Cartesian
  -0.0000041300    0.0000042600    9.9242971803
  -0.0000023800   -0.0000016100    3.0140132897
   0.0000005400   -0.0000001000    0.0041567413
   0.0000004300   -0.0000002800    6.9240332387
   1.5609908910   -0.1652455795    8.3322778096
  -0.9236067000   -1.2692359011    8.3322778696
  -0.6373849209    1.4344828906    8.3322774296
  -1.6452167000    0.2077465811    6.0256823604
   1.0025216810    1.3209245395    6.0256823204
   0.6426949491   -1.5286730106    6.0256821204
