generated by RamanPy, mode 25 displacement 0.01
1.0
  15.0000000000    0.0000000000    0.0000000000
   0.0000000000   15.0000000000    0.0000000000
   0.0000000000    0.0000000000   25.0000000000
 N C H
 4 18 12
Cartesian
   8.6371465500    8.0000199800    7.6002917499
  11.3628629400    8.0000300100    7.6003227399
   8.5705180900    7.9999900600   12.4083563200
  11.4294012900    7.9999900500   12.4083431100
   9.2730106500    7.9999799100   11.2720060000
  10.7268997500    7.9999799400   11.2720238700
   9.2785814001    7.9999999200    8.8318442000
  10.7213767599    8.0000001200    8.8318495200
   8.5862287900    7.9999900400   10.0238723800
  11.4137139300    7.9999899800   10.0238972100
   9.2785731000    7.9999799900   13.5650206500
  10.7213634800    7.9999800800   13.5650019100
   9.2934745100    8.0000000700    6.3801477101
  10.7065953700    8.0000000700    6.3801626501
   8.5882805700    7.9999900400   14.8099082601
  11.4116944500    7.9999899300   14.8098814401
   8.6039223700    7.9999900200    5.1623814500
  11.3961899400    8.0000000900    5.1624296400
   9.2901805900    8.0000000200   15.9926096100
  10.7098337800    8.0000000300   15.9925958400
   9.2995077999    7.9999899600    3.9522775300
  10.7006303201    8.0000002200    3.9522919900
   7.4955136400    7.9999996700   10.0403255000
  12.5044273200    8.0000100200   10.0403835000
   7.6236709400    8.0000303900    7.6039392401
  12.3763287900    8.0000298700    7.6040396901
   7.4978796500    8.0000099100   14.7808683500
  12.5021021100    8.0000005000   14.7807959400
   7.5117581400    7.9999999500    5.1697962700
  12.4883726700    8.0000101500    5.1698528600
   8.7535923700    8.0000096300   16.9430226000
  11.2464469100    8.0000101300   16.9429984500
   8.7512143100    8.0000007900    3.0113057500
  11.2489234100    8.0000098800    3.0013025600
