generated by RamanPy, mode 45 displacement -0.01
1.0
  15.0000000000    0.0000000000    0.0000000000
   0.0000000000   15.0000000000    0.0000000000
   0.0000000000    0.0000000000   25.0000000000
 N C H
 4 18 12
Cartesian
   8.6372121000    8.0000200600    7.6035197301
  11.3627995500    8.0000302800    7.6035616801
   8.5704939900    7.9999899400   12.4096402800
  11.4294261500    7.9999901700   12.4096306900
   9.2725316100    7.9999802600   11.2710202500
  10.7273787500    7.9999795200   11.2710293900
   9.2766144201    8.0000002600    8.8325350301
  10.7233474899    7.9999998000    8.8325426501
   8.5873270400    7.9999901300   10.0223664700
  11.4126092300    7.9999905200   10.0223839500
   9.2780178500    7.9999800300   13.5653541100
  10.7219206800    7.9999798000   13.5653444600
   9.2926368298    8.0000006000    6.3777301198
  10.7074299002    7.9999995700    6.3777438898
   8.5882073900    7.9999907600   14.8075923800
  11.4117654500    7.9999912800   14.8075617300
   8.6059189107    7.9999874800    5.1607548994
  11.3941930593    8.0000002300    5.1608002494
   9.2900930000    7.9999993900   15.9936050800
  10.7099266100    7.9999996700   15.9935846500
   9.3051309610    7.9999951100    3.9548510810
  10.6950106890    7.9999964100    3.9548700710
   7.4958906800    7.9999993500   10.0404818499
  12.5040483400    8.0000095500   10.0405401899
   7.6236797900    8.0000311600    7.6017325002
  12.3763206100    8.0000301200    7.6018230002
   7.4978112700    8.0000096600   14.7822028000
  12.5021696400    7.9999967300   14.7821308200
   7.5123962202    8.0000042400    5.1666937887
  12.4877346098    8.0000092000    5.1667533987
   8.7541075600    8.0000104800   16.9436714200
  11.2459195700    8.0000107700   16.9436528600
   8.7526090607    7.9999849100    3.0123554901
  11.2475243893    8.0000160500    3.0023516001
