generated by RamanPy, mode 96 displacement 0.01
1.0
  15.0000000000    0.0000000000    0.0000000000
   0.0000000000   15.0000000000    0.0000000000
   0.0000000000    0.0000000000   25.0000000000
 N C H
 4 18 12
Cartesian
   8.6372999100    8.0029342798    7.6031451900
  11.3627899800    8.0025633499    7.6032320500
   8.5704099700    8.0009078200   12.4095924300
  11.4294303500    8.0006390200   12.4096280900
   9.2726097000    8.0015229299   11.2710286900
  10.7272593200    8.0013902399   11.2710605500
   9.2762466200    8.0023193399    8.8321599800
  10.7237465600    8.0021550499    8.8321923700
   8.5872783900    8.0021101399   10.0222991200
  11.4126581400    8.0018275099   10.0223622200
   9.2779665700    7.9997961000   13.5653269100
  10.7218663000    7.9996749800   13.5653384500
   9.2932071400    8.0004566700    6.3781909300
  10.7069773300    8.0002697900    6.3782231600
   8.5881288900    7.9986811901   14.8075065600
  11.4116984600    7.9984473401   14.8075179300
   8.6038463800    7.9984595301    5.1626999300
  11.3964175300    7.9981000601    5.1627842000
   9.2899816600    7.9974439201   15.9935666600
  10.7098614400    7.9973263501   15.9935675300
   9.3021357000    7.9963289802    3.9518103900
  10.6981967700    7.9961554402    3.9518524400
   7.4958795100    8.0006113400   10.0407877700
  12.5040593100    8.0004734300   10.0408698400
   7.6237007000    8.0007055300    7.6012275700
  12.3763206800    8.0005302400    7.6013402700
   7.4977896100    7.9996604600   14.7821270100
  12.5021494100    7.9995297900   14.7820779300
   7.5117419300    7.9995896100    5.1706976700
  12.4884324000    7.9994087600    5.1707806200
   8.7540604400    7.9990088401   16.9436522600
  11.2459104700    7.9989485701   16.9436428100
   8.7504217300    7.9984968801    3.0121331500
  11.2497824000    7.9984105801    3.0021445100
