17  -1 1.0e-02 
  0.997907911234823     
     2.5744747587826007    1.4863736950050308    4.6178143141981334
    -2.5744747587826007    1.4863736950050308    4.6178143141981334
    -0.0000000000000000   -2.9727473900100621    4.6178143141981334
   Li   Nb   O 
     2     2     6
Cartesian
  -0.0039296489   -0.0036019399    9.9252795035
   0.0052300641   -0.0015133828    3.0130368584
  -0.0013480423    0.0006186631    0.0079818887
   0.0009292926    0.0011494456    6.9202100876
   1.5619764639   -0.1647753497    8.3316477175
  -0.9238933998   -1.2753765351    8.3321268852
  -0.6392833344    1.4356131283    8.3292804329
  -1.6452008970    0.2084551845    6.0285131954
   1.0078353618    1.3181625530    6.0268147216
   0.6404311248   -1.5301648648    6.0255007631
