generated by RamanPy, mode 69 displacement 0.01
1.0
  15.0000000000    0.0000000000    0.0000000000
   0.0000000000   15.0000000000    0.0000000000
   0.0000000000    0.0000000000   25.0000000000
 N C H
 4 18 12
Cartesian
   8.6363090398    8.0000205500    7.6041487002
  11.3637007202    8.0000295600    7.6041911802
   8.5747305107    7.9999900400   12.4092022999
  11.4251900893    7.9999900000   12.4091958199
   9.2730145901    7.9999819300   11.2689759096
  10.7268964399    7.9999810800   11.2689901296
   9.2756184599    7.9999985600    8.8329300801
  10.7243430501    8.0000004000    8.8329432801
   8.5848099096    7.9999896300   10.0218805399
  11.4151300904    7.9999903100   10.0219057799
   9.2783793301    7.9999791500   13.5666599202
  10.7215602599    7.9999813200   13.5666502802
   9.2933554500    7.9999987000    6.3796666402
  10.7067147200    7.9999997200    6.3796782002
   8.5864374597    7.9999876400   14.8080793701
  11.4135313203    7.9999898600   14.8080477501
   8.6062347504    7.9999891300    5.1627522400
  11.3938761396    8.0000000700    5.1627944200
   9.2898342800    8.0000023500   15.9932670599
  10.7101856000    7.9999986500   15.9932454199
   9.3021859200    7.9999914200    3.9502525697
  10.6979540800    7.9999977300    3.9502737097
   7.4951715599    8.0000000700   10.0406985900
  12.5047681801    8.0000108800   10.0407605700
   7.6234355200    8.0000260500    7.6014842500
  12.3765643800    8.0000301400    7.6015745900
   7.4972987299    8.0000087300   14.7823401300
  12.5026806201    8.0000004200   14.7822693100
   7.5124234801    8.0000005700    5.1707252800
  12.4877067699    8.0000107900    5.1707867800
   8.7543945901    8.0000116500   16.9437847100
  11.2456359899    8.0000092200   16.9437638600
   8.7498617599    8.0000009400    3.0120195800
  11.2502770701    8.0000087800    3.0020193000
