27  1 1.0e-02 
  0.997907911234823     
     2.5744747587826007    1.4863736950050308    4.6178143141981334
    -2.5744747587826007    1.4863736950050308    4.6178143141981334
    -0.0000000000000000   -2.9727473900100621    4.6178143141981334
   Li   Nb   O 
     2     2     6
Cartesian
   0.0017979366   -0.0008145891    9.9252733712
  -0.0019829337    0.0001890236    3.0130448532
  -0.0015789577   -0.0005367173    0.0079808020
   0.0011027705   -0.0012547150    6.9202106917
   1.5616724908   -0.1617414601    8.3341728062
  -0.9252112292   -1.2700319837    8.3297893789
  -0.6420921032    1.4389203680    8.3290965135
  -1.6428599493    0.2117725508    6.0244063534
   1.0084952037    1.3204256794    6.0298748081
   0.6428262068   -1.5288322206    6.0265463643
