generated by RamanPy, mode 3 displacement 0.01
1.0
   2.5690887290    1.4832640690    4.6081534370
  -2.5690887290    1.4832640690    4.6081534370
   0.0000000000   -2.9665281390    4.6081534370
 Li Nb O
 2 2 6
Cartesian
  -0.0006021100    0.0001175000    9.9252700600
   0.0003939400    0.0004706000    3.0130400000
   0.0027675200   -0.0001076200    0.0079799200
  -0.0020849300   -0.0018233700    6.9202099600
   1.5618637500   -0.1614385300    8.3295684700
  -0.9281447299   -1.2732704400    8.3336490000
  -0.6403927300    1.4347467200    8.3298426700
  -1.6424994900    0.2102256900    6.0288851800
   1.0082629400    1.3228909400    6.0244297900
   0.6394035400   -1.5288919800    6.0275051700
