generated by RamanPy, mode 88 displacement 0.01
1.0
  15.0000000000    0.0000000000    0.0000000000
   0.0000000000   15.0000000000    0.0000000000
   0.0000000000    0.0000000000   25.0000000000
 N C H
 4 18 12
Cartesian
   8.6376142199    8.0001028700    7.6015777404
  11.3624028501    8.0000938700    7.6016106704
   8.5707647199    7.9999887700   12.4113654696
  11.4291311801    7.9999976400   12.4113499896
   9.2726189600    7.9999745900   11.2720849797
  10.7272694900    7.9999761200   11.2720922397
   9.2762099000    8.0000180200    8.8314867402
  10.7237608400    8.0000131100    8.8314945802
   8.5876617899    7.9999844500   10.0224048600
  11.4122738801    7.9999786700   10.0224300300
   9.2780014900    7.9999830400   13.5674812295
  10.7219210200    7.9999872700   13.5674666295
   9.2931450800    7.9999222100    6.3760331806
  10.7069249700    7.9999283000    6.3760382206
   8.5883604000    7.9999961700   14.8101740893
  11.4116138200    7.9999921700   14.8101258293
   8.6039241000    7.9999030900    5.1601164507
  11.3961750200    7.9999349200    5.1601444907
   9.2900708600    7.9999988000   15.9964568293
  10.7099745900    7.9999887300   15.9964290393
   9.3020236000    8.0000461800    3.9489444308
  10.6980952900    8.0000685700    3.9489577308
   7.4959809200    7.9999987100   10.0408055800
  12.5039578900    8.0000046200   10.0408731400
   7.6237792900    8.0000563700    7.6007901901
  12.3762225000    8.0000542800    7.6008771101
   7.4978511200    8.0000138400   14.7829674798
  12.5021299200    8.0000021600   14.7828851398
   7.5117618600    7.9999706400    5.1699063302
  12.4883652200    7.9999899300    5.1699599702
   8.7540383500    8.0000110000   16.9444618398
  11.2460017600    8.0000032500   16.9444379298
   8.7503280500    8.0000456200    3.0113390402
  11.2498050700    8.0000572600    3.0013364002
