generated by RamanPy, mode 4 displacement 0.01
1.0
  15.0000000000    0.0000000000    0.0000000000
   0.0000000000   15.0000000000    0.0000000000
   0.0000000000    0.0000000000   25.0000000000
 N C H
 4 18 12
Cartesian
   8.6372591500    8.0000200600    7.6032116800
  11.3627510900    8.0000300400    7.6032516500
   8.5704538900    7.9999900200   12.4096621100
  11.4294660200    7.9999899900   12.4096518700
   9.2726269400    7.9999800000   11.2710859700
  10.7272830500    7.9999799000   11.2710963500
   9.2762276100    8.0000000300    8.8322083800
  10.7237319700    7.9999999900    8.8322182400
   8.5872552000    7.9999899900   10.0223608300
  11.4126880700    7.9999899500   10.0223808900
   9.2780199600    7.9999800500   13.5653247400
  10.7219199900    7.9999800200   13.5653138600
   9.2931504600    8.0000001900    6.3782392100
  10.7069190200    7.9999999600    6.3782501600
   8.5868064103    7.9999901700   14.8074754600
  11.4131838897    7.9999900000   14.8074444900
   8.6037727200    7.9999900000    5.1627594800
  11.3963486600    8.0000001000    5.1628002100
   9.2893201801    7.9999998800   15.9949870897
  10.7107014099    8.0000000800   15.9949719597
   9.3020471800    7.9999900400    3.9518746400
  10.6981133900    8.0000000500    3.9518564800
   7.4959594400    7.9999998800   10.0408087700
  12.5039696100    8.0000099700   10.0408686200
   7.6236943300    8.0000302900    7.6012506900
  12.3763052600    8.0000300200    7.6013404700
   7.5023192291    8.0000101000   14.7822418800
  12.4975931809    8.0000000500   14.7821731200
   7.5117112400    8.0000000800    5.1707193000
  12.4883835900    8.0000101900    5.1707791900
   8.7565420795    8.0000096800   16.9393309608
  11.2434811605    8.0000100700   16.9392975908
   8.7503601600    8.0000000100    3.0121013900
  11.2497032500    8.0000101700    3.0022292000
