generated by RamanPy, mode 50 displacement 0.01
1.0
  15.0000000000    0.0000000000    0.0000000000
   0.0000000000   15.0000000000    0.0000000000
   0.0000000000    0.0000000000   25.0000000000
 N C H
 4 18 12
Cartesian
   8.6389597194    8.0000198900    7.6027155602
  11.3644502894    8.0000299300    7.6037398498
   8.5678151709    7.9999903100   12.4080013506
  11.4268377409    7.9999897900   12.4113025294
   9.2734836697    7.9999799500   11.2707692901
  10.7281303497    7.9999802800   11.2713996799
   9.2754998403    8.0000000500    8.8325273299
  10.7230037703    8.0000000600    8.8319032101
   8.5873052000    7.9999897600   10.0233585696
  11.4126867200    7.9999897400   10.0213859704
   9.2783309699    7.9999790000   13.5641674804
  10.7222361599    7.9999805600   13.5665792596
   9.2930434600    8.0000001900    6.3777771502
  10.7068110500    7.9999999300    6.3787125798
   8.5912491889    7.9999915400   14.8077735699
  11.4148236289    7.9999905100   14.8073401801
   8.6019641606    7.9999895400    5.1626925200
  11.3945324706    7.9999998100    5.1628689700
   9.2882844906    8.0000007500   15.9966265689
  10.7081637406    7.9999979300   15.9905955711
   9.3029835597    7.9999901800    3.9531468595
  10.6990442997    8.0000000100    3.9505935905
   7.4959111300    8.0000003700   10.0421742595
  12.5040914800    8.0000105700   10.0395129305
   7.6241515298    8.0000298900    7.6008746301
  12.3767716498    8.0000302100    7.6017116799
   7.4986995597    8.0000078100   14.7812775303
  12.5030609397    8.0000001500   14.7829572197
   7.5111993402    8.0000006900    5.1701982702
  12.4878888402    8.0000102300    5.1713043698
   8.7538009701    8.0000087700   16.9446529696
  11.2456496701    8.0000135300   16.9426682204
   8.7506815099    7.9999997200    3.0125014199
  11.2500414599    8.0000098900    3.0017984901
