generated by RamanPy, mode 7 displacement 0.01
1.0
  15.0000000000    0.0000000000    0.0000000000
   0.0000000000   15.0000000000    0.0000000000
   0.0000000000    0.0000000000   25.0000000000
 N C H
 4 18 12
Cartesian
   8.6372603300    8.0000200000    7.6032091300
  11.3627496600    8.0000300100    7.6032492700
   8.5704449100    7.9999899800   12.4096653800
  11.4294750100    7.9999899800   12.4096553000
   9.2726356100    7.9999799900   11.2710725700
  10.7272743800    7.9999799800   11.2710822100
   9.2762317400    8.0000000100    8.8322132600
  10.7237285000    8.0000000000    8.8322238600
   8.5873408300    7.9999900100   10.0223585000
  11.4125881700    7.9999900200   10.0223781000
   9.2780336000    7.9999800000   13.5654135400
  10.7219061200    7.9999799600   13.5654032000
   9.2931499800    8.0000000300    6.3782401200
  10.7069202800    8.0000000000    6.3782495600
   8.5896667897    7.9999899400   14.8075521700
  11.4103127303    7.9999899600   14.8075217300
   8.6037666900    7.9999900200    5.1627605300
  11.3963346200    8.0000000200    5.1628003600
   9.2893566601    8.0000000400   15.9947641498
  10.7106653399    8.0000000100   15.9947492698
   9.3020370900    7.9999900100    3.9518536000
  10.6980980400    8.0000000000    3.9518832700
   7.4956784700    8.0000000300   10.0408132400
  12.5042986900    8.0000100200   10.0408738300
   7.6236868700    8.0000300500    7.6012485900
  12.3763131900    8.0000300200    7.6013384700
   7.4927774110    8.0000099400   14.7820846800
  12.5071718290    8.0000000500   14.7820151200
   7.5117310500    8.0000000000    5.1707199600
  12.4884274000    8.0000100300    5.1707801400
   8.7563473695    8.0000098900   16.9397166308
  11.2436741705    8.0000100300   16.9396813008
   8.7504012000    8.0000000200    3.0121702100
  11.2497562700    8.0000100500    3.0021388200
