generated by RamanPy, mode 59 displacement 0.01
1.0
  15.0000000000    0.0000000000    0.0000000000
   0.0000000000   15.0000000000    0.0000000000
   0.0000000000    0.0000000000   25.0000000000
 N C H
 4 18 12
Cartesian
   8.6380686598    8.0000187700    7.6005065306
  11.3619578802    8.0000315100    7.6005361506
   8.5709357799    7.9999870200   12.4122434394
  11.4290016301    7.9999935200   12.4122425194
   9.2716563102    7.9999862600   11.2725579997
  10.7282548398    7.9999741800   11.2725762197
   9.2752932902    8.0000017900    8.8312770002
  10.7246653198    7.9999996600    8.8312776702
   8.5855750204    7.9999885000   10.0221399600
  11.4143406296    7.9999891500   10.0221592500
   9.2795845697    7.9999833200   13.5662834898
  10.7203530003    7.9999742800   13.5662744198
   9.2945842697    8.0000071600    6.3779541801
  10.7054833803    7.9999922600    6.3779609101
   8.5902629596    7.9999940300   14.8063082003
  11.4097022305    7.9999915100   14.8062723203
   8.6061383695    7.9999850500    5.1638767398
  11.3939601305    8.0000084500    5.1639157798
   9.2904347199    7.9999955600   15.9925344202
  10.7095869801    8.0000027800   15.9925092702
   9.3022799899    7.9999853900    3.9528873198
  10.6978599301    8.0000025000    3.9529055698
   7.4953549601    7.9999981900   10.0405612301
  12.5045781299    8.0000126700   10.0406199801
   7.6239114700    8.0000309900    7.5996367904
  12.3760929900    8.0000305100    7.5997227404
   7.4984552899    8.0000062900   14.7810240302
  12.5015232701    7.9999976500   14.7809491702
   7.5124280498    8.0000060600    5.1715871698
  12.4876985602    8.0000005600    5.1716495198
   8.7538734200    8.0000078500   16.9431469401
  11.2461582100    8.0000071900   16.9431246301
   8.7500561601    8.0000084500    3.0127120599
  11.2500915599    8.0000035600    3.0027156399
