generated by RamanPy, mode 30 displacement 0.01
1.0
  15.0000000000    0.0000000000    0.0000000000
   0.0000000000   15.0000000000    0.0000000000
   0.0000000000    0.0000000000   25.0000000000
 N C H
 4 18 12
Cartesian
   8.6377728600    8.0000199700    7.6034690800
  11.3632619100    8.0000299700    7.6029885100
   8.5699291000    7.9999901800   12.4080195499
  11.4289469300    7.9999900100   12.4112866201
   9.2716156199    7.9999801700   11.2691781799
  10.7262721999    7.9999799100   11.2730007901
   9.2754809399    7.9999998000    8.8339363601
  10.7229825299    8.0000000700    8.8304901099
   8.5886047201    7.9999898500   10.0228388600
  11.4139865101    7.9999900100   10.0219005700
   9.2794187901    7.9999798500   13.5669808901
  10.7233152001    7.9999797600   13.5637703699
   9.2921779099    7.9999999900    6.3779873100
  10.7059532599    7.9999999400    6.3785027300
   8.5872999499    7.9999897700   14.8096687302
  11.4108706599    7.9999905000   14.8054343498
   8.6037757300    7.9999900200    5.1619506699
  11.3963470900    8.0000000100    5.1636155401
   9.2912842201    8.0000000800   15.9935250500
  10.7111624901    7.9999998700   15.9936973400
   9.3027725801    7.9999900000    3.9515319400
  10.6988290201    8.0000001100    3.9522033900
   7.4963273200    8.0000003400   10.0403465200
  12.5045078800    8.0000102700   10.0413350500
   7.6238275200    8.0000296700    7.5991375698
  12.3764472900    8.0000299200    7.6034562002
   7.4975802800    8.0000105100   14.7804594399
  12.5019409900    7.9999979200   14.7837773001
   7.5117071400    7.9999999200    5.1725224301
  12.4883976400    8.0000100400    5.1689788699
   8.7515180198    8.0000099200   16.9420005799
  11.2433664898    8.0000104800   16.9453212701
   8.7490351199    8.0000000700    3.0129729801
  11.2483949599    8.0000097900    3.0013264299
