generated by RamanPy, mode 87 displacement -0.01
1.0
  15.0000000000    0.0000000000    0.0000000000
   0.0000000000   15.0000000000    0.0000000000
   0.0000000000    0.0000000000   25.0000000000
 N C H
 4 18 12
Cartesian
   8.6372644500    7.9970575289    7.6031739000
  11.3627407700    7.9970625789    7.6032146200
   8.5704589600    8.0000024700   12.4096980500
  11.4294644500    8.0000029800   12.4096877300
   9.2726311400    8.0001932801   11.2711031300
  10.7272808100    8.0001926601   11.2711128900
   9.2762272400    7.9993509898    8.8321945700
  10.7237288100    7.9993492398    8.8322045100
   8.5872882900    8.0003315601   10.0223628400
  11.4126504600    8.0003286301   10.0223813100
   9.2780218300    7.9998121799   13.5654257100
  10.7219218200    7.9998127099   13.5654162100
   9.2931479900    8.0035983014    6.3781908900
  10.7069188400    8.0035975514    6.3782015200
   8.5882042400    7.9998170399   14.8076251700
  11.4117666500    7.9998164599   14.8075977500
   8.6037735100    8.0034177213    5.1626996000
  11.3963368600    8.0034305813    5.1627422300
   9.2900687000    8.0001255800   15.9936811800
  10.7099491300    8.0001248200   15.9936622700
   9.3020413900    7.9970411589    3.9517937500
  10.6981024900    7.9970563789    3.9518146600
   7.4958822400    8.0001713601   10.0408111900
  12.5040574200    8.0001803901   10.0408696700
   7.6236910100    7.9988511596    7.6012398000
  12.3763076900    7.9988463695    7.6013300200
   7.4978111600    7.9999498600   14.7821665300
  12.5021691400    7.9999394500   14.7820982900
   7.5117208700    8.0010734304    5.1707008000
  12.4884091800    8.0010851404    5.1707626300
   8.7540881200    8.0001049400   16.9436868300
  11.2459407100    8.0001045200   16.9436674600
   8.7503892000    7.9978653992    3.0121313900
  11.2497524900    7.9978776592    3.0021319200
