24  1 1.0e-02 
  0.997907911234823     
     2.5744747587826007    1.4863736950050308    4.6178143141981334
    -2.5744747587826007    1.4863736950050308    4.6178143141981334
    -0.0000000000000000   -2.9727473900100621    4.6178143141981334
   Li   Nb   O 
     2     2     6
Cartesian
   0.0003718301   -0.0031306521    9.9253045782
  -0.0030604258    0.0009449474    3.0130196158
   0.0017538343   -0.0013792475    0.0079732625
  -0.0010313401    0.0019751194    6.9202202383
   1.5624949868   -0.1661040478    8.3324028071
  -0.9224012910   -1.2716110334    8.3328987830
  -0.6427080471    1.4376744780    8.3277483900
  -1.6458814948    0.2077161602    6.0239415965
   1.0073188062    1.3194508553    6.0296036179
   0.6380372299   -1.5297478189    6.0272765729
