generated by RamanPy, mode 20 displacement -0.01
1.0
  15.0000000000    0.0000000000    0.0000000000
   0.0000000000   15.0000000000    0.0000000000
   0.0000000000    0.0000000000   25.0000000000
 N C H
 4 18 12
Cartesian
   8.6386447100    8.0000198000    7.6025018300
  11.3613643300    8.0000299400    7.6025466700
   8.5701331100    7.9999899500   12.4098159000
  11.4297855000    7.9999900000   12.4097974600
   9.2722409000    7.9999801100   11.2693334600
  10.7276721200    7.9999800700   11.2693561800
   9.2742701800    8.0000000000    8.8302987500
  10.7256905500    8.0000001000    8.8303080200
   8.5876384200    7.9999898900   10.0254071600
  11.4123014900    7.9999899600   10.0254207000
   9.2777969600    7.9999798800   13.5661178900
  10.7221422700    7.9999799500   13.5661153500
   9.2917976000    7.9999996400    6.3807204200
  10.7082722500    8.0000001100    6.3807324900
   8.5886170700    7.9999898600   14.8071338600
  11.4113522600    7.9999900900   14.8070989400
   8.6033546800    7.9999901100    5.1600990700
  11.3967542500    7.9999999300    5.1601305100
   9.2892519400    8.0000003100   15.9934875000
  10.7107681600    7.9999998800   15.9934683500
   9.3034386500    7.9999898900    3.9523209900
  10.6967040400    7.9999998100    3.9523462800
   7.4959143700    8.0000003500   10.0392447100
  12.5040256800    8.0000100300   10.0393087200
   7.6240457000    8.0000295600    7.6020916900
  12.3759540000    8.0000298400    7.6021751100
   7.4979392300    8.0000096700   14.7824788100
  12.5020406300    7.9999993300   14.7824111500
   7.5115714800    7.9999998300    5.1725925100
  12.4885580800    8.0000096000    5.1726544200
   8.7544257200    8.0000100300   16.9439649300
  11.2456020700    8.0000102800   16.9439465900
   8.7497106000    7.9999998900    3.0129935500
  11.2504287300    8.0000098800    3.0029945100
