generated by RamanPy, mode 83 displacement 0.01
1.0
  15.0000000000    0.0000000000    0.0000000000
   0.0000000000   15.0000000000    0.0000000000
   0.0000000000    0.0000000000   25.0000000000
 N C H
 4 18 12
Cartesian
   8.6372609700    8.0004733502    7.6032077900
  11.3627487300    8.0004749202    7.6032488500
   8.5704525600    7.9990348595   12.4096588900
  11.4294687600    7.9990377895   12.4096486600
   9.2726300200    7.9998419999   11.2710767500
  10.7272800100    7.9998438699   11.2710871800
   9.2762296700    7.9958160878    8.8322068300
  10.7237285600    7.9958133278    8.8322169700
   8.5872790700    8.0025790113   10.0223563600
  11.4126591000    8.0025780113   10.0223763400
   9.2780206200    7.9995231198   13.5653810600
  10.7219209700    7.9995234298   13.5653710700
   9.2931513400    7.9999985600    6.3782402300
  10.7069203400    7.9999981500    6.3782502100
   8.5882003900    8.0011782206   14.8075727100
  11.4117703400    8.0011787706   14.8075431300
   8.6037695200    8.0002800702    5.1627627800
  11.3963410300    8.0002870701    5.1628018600
   9.2900698400    7.9994572897   15.9936235800
  10.7099501300    7.9994573597   15.9936038800
   9.3020393200    7.9997722599    3.9518633800
  10.6980995200    7.9997833999    3.9518831700
   7.4958797200    8.0026156614   10.0408086400
  12.5040596800    8.0026215614   10.0408682500
   7.6236904500    8.0038920720    7.6012492200
  12.3763094700    8.0039206420    7.6013401600
   7.4978100600    8.0008130704   14.7821513300
  12.5021701800    8.0008033404   14.7820817700
   7.5117198900    8.0001348501    5.1707216400
  12.4884102600    8.0001433301    5.1707807500
   8.7540898200    7.9997856899   16.9436710500
  11.2459400100    7.9997854299   16.9436512400
   8.7503898400    7.9998102999    3.0121509600
  11.2497495700    7.9998205099    3.0021507400
