generated by RamanPy, mode 67 displacement -0.01
1.0
  15.0000000000    0.0000000000    0.0000000000
   0.0000000000   15.0000000000    0.0000000000
   0.0000000000    0.0000000000   25.0000000000
 N C H
 4 18 12
Cartesian
   8.6372979800    7.9992203702    7.6032107700
  11.3627097200    8.0008228998    7.6032508700
   8.5704312400    8.0002813999   12.4096528700
  11.4294917500    7.9996986301   12.4096448800
   9.2726274500    7.9987984503   11.2710744700
  10.7272818900    8.0011623897   11.2710883600
   9.2762475300    8.0003777099    8.8322029600
  10.7237132500    7.9996210601    8.8322158400
   8.5872966800    7.9998453100   10.0223427900
  11.4126419000    8.0001340300   10.0223686100
   9.2780068400    8.0006273798   13.5653820200
  10.7219342700    7.9993326102   13.5653714900
   9.2931645600    8.0052026385    6.3782491300
  10.7069038800    7.9948231615    6.3782571400
   8.5881766100    7.9996197401   14.8075811300
  11.4117927300    8.0003606899   14.8075486500
   8.6038032800    7.9983598105    5.1627720300
  11.3963076600    8.0016050395    5.1628094400
   9.2900667900    8.0004904699   15.9936230400
  10.7099520000    7.9995097401   15.9935996700
   9.3020432100    8.0027003592    3.9518564100
  10.6980993000    7.9972603008    3.9518722500
   7.4958847900    8.0008292198   10.0407977700
  12.5040547500    7.9991821702   10.0408603900
   7.6237004400    7.9994455302    7.6012510600
  12.3762989600    8.0006140198    7.6013405000
   7.4978029100    7.9995759401   14.7821575200
  12.5021768300    8.0004343399   14.7820871000
   7.5117297800    7.9970842508    5.1707273400
  12.4884004900    8.0029744991    5.1707879900
   8.7540941100    8.0001203400   16.9436739700
  11.2459364800    7.9998997200   16.9436524600
   8.7503827000    8.0002944999    3.0121539200
  11.2497566400    7.9997899301    3.0021519500
