generated by RamanPy, mode 36 displacement 0.01
1.0
  15.0000000000    0.0000000000    0.0000000000
   0.0000000000   15.0000000000    0.0000000000
   0.0000000000    0.0000000000   25.0000000000
 N C H
 4 18 12
Cartesian
   8.6383256599    8.0000200000    7.6031332800
  11.3616989101    8.0000299000    7.6031971100
   8.5701321300    7.9999900600   12.4075068501
  11.4297655400    7.9999899900   12.4075020601
   9.2729819500    7.9999799400   11.2722331999
  10.7269484800    7.9999795500   11.2722318699
   9.2743876601    7.9999999900    8.8322466800
  10.7255769799    8.0000000000    8.8322471200
   8.5876895000    7.9999900000   10.0216548000
  11.4122394600    7.9999900300   10.0216675600
   9.2780023000    7.9999798300   13.5677134999
  10.7219709300    7.9999799300   13.5677173499
   9.2936239400    8.0000002500    6.3813964898
  10.7064092300    8.0000004100    6.3813980898
   8.5883236600    7.9999900500   14.8069996900
  11.4116318100    7.9999898500   14.8069731500
   8.6025804401    7.9999903100    5.1629003900
  11.3975531199    7.9999998500    5.1629386300
   9.2908357600    8.0000002300   15.9936465100
  10.7091785600    7.9999996800   15.9936283600
   9.3014996500    7.9999893900    3.9509786501
  10.6986328300    8.0000006700    3.9509983601
   7.4960154900    8.0000003200   10.0402972400
  12.5039207100    8.0000100600   10.0403794100
   7.6239922600    8.0000302500    7.5981483902
  12.3760119000    8.0000301500    7.5982531002
   7.4978592700    8.0000099800   14.7819463300
  12.5021156200    7.9999999500   14.7818381200
   7.5112986300    8.0000000000    5.1683450501
  12.4888380200    8.0000107800    5.1683963001
   8.7529867001    8.0000090200   16.9429131700
  11.2470562399    8.0000108500   16.9428853000
   8.7513571199    8.0000032900    3.0111805701
  11.2487757601    8.0000090700    3.0011768901
