generated by RamanPy, mode 14 displacement -0.01
1.0
   2.5690887290    1.4832640690    4.6081534370
  -2.5690887290    1.4832640690    4.6081534370
   0.0000000000   -2.9665281390    4.6081534370
 Li Nb O
 2 2 6
Cartesian
  -0.0048004395    0.0034942796    9.9252591200
  -0.0062085293    0.0000407500    3.0130499400
  -0.0000757800   -0.0013447699    0.0079732700
   0.0008968499    0.0011710699    6.9202189400
   1.5643184999   -0.1627457801    8.3325442198
  -0.9235862400   -1.2734389099    8.3307129100
  -0.6379087002    1.4358428200    8.3297949501
  -1.6456940100    0.2105935600    6.0282070299
   1.0064956299    1.3178469602    6.0253415902
   0.6416091898   -1.5299935600    6.0272744500
