generated by RamanPy, mode 1 displacement 0.01
1.0
   2.5690887290    1.4832640690    4.6081534370
  -2.5690887290    1.4832640690    4.6081534370
   0.0000000000   -2.9665281390    4.6081534370
 Li Nb O
 2 2 6
Cartesian
   0.0000006800    0.0000005500    9.9252213800
   0.0000003500   -0.0000000900    3.0130886800
  -0.0000000100   -0.0000000400    0.0072353701
  -0.0000000400    0.0000000400    6.9209546799
   1.5663055696   -0.1659556097    8.3333464297
  -0.9268782596   -1.2734844198    8.3333464697
  -0.6394272801    1.4394401595    8.3333464497
  -1.6484882596    0.2119943798    6.0246135003
   1.0078355496    1.3216355597    6.0246135603
   0.6406526799   -1.5336301095    6.0246134803
