generated by RamanPy, mode 35 displacement -0.01
1.0
  15.0000000000    0.0000000000    0.0000000000
   0.0000000000   15.0000000000    0.0000000000
   0.0000000000    0.0000000000   25.0000000000
 N C H
 4 18 12
Cartesian
   8.6381386897    8.0000199500    7.6019825805
  11.3636424496    8.0000299600    7.6044738295
   8.5681920009    7.9999904000   12.4094708501
  11.4272049109    7.9999900900   12.4098753999
   9.2750089591    7.9999798800   11.2718735197
  10.7296588691    7.9999798400   11.2702858503
   9.2763837099    7.9999998200    8.8325417499
  10.7238605099    7.9999999400    8.8318879401
   8.5860018105    7.9999901000   10.0225114699
  11.4113904505    7.9999901700   10.0222418801
   9.2807715189    7.9999799400   13.5646956203
  10.7246714789    7.9999796900   13.5660092697
   9.2908568009    8.0000000400    6.3782859700
  10.7046329709    7.9999998100    6.3781743400
   8.5870116505    7.9999897300   14.8074576000
  11.4105833205    7.9999908000   14.8076597900
   8.6047720096    7.9999900600    5.1630657799
  11.3973323496    7.9999999100    5.1624964301
   9.2896607902    8.0000000600   15.9933192801
  10.7095537502    7.9999997000   15.9939008399
   9.3022989599    7.9999899100    3.9515457301
  10.6983536199    8.0000002600    3.9521993499
   7.4954567502    7.9999997200   10.0389495007
  12.5036396202    8.0000100300   10.0427301493
   7.6239247399    8.0000298700    7.6011186701
  12.3765483899    8.0000301300    7.6014994299
   7.4974023202    8.0000108500   14.7849009789
  12.5017633802    7.9999968200   14.7793372111
   7.5120210899    7.9999999700    5.1731264190
  12.4887077899    8.0000102300    5.1683961309
   8.7549754896    8.0000096100   16.9441622098
  11.2468048697    8.0000105200   16.9431720202
   8.7501958201    7.9999999100    3.0122251800
  11.2495633601    8.0000098900    3.0020820700
