generated by RamanPy, mode 46 displacement -0.01
1.0
  15.0000000000    0.0000000000    0.0000000000
   0.0000000000   15.0000000000    0.0000000000
   0.0000000000    0.0000000000   25.0000000000
 N C H
 4 18 12
Cartesian
   8.6372363600    8.0000200200    7.6031685200
  11.3627791200    8.0000296100    7.6032092300
   8.5702497401    7.9999901600   12.4098015500
  11.4296678199    7.9999898600   12.4097928000
   9.2723832601    7.9999799800   11.2712704099
  10.7275279999    7.9999800500   11.2712817299
   9.2762583900    7.9999999800    8.8322163800
  10.7237021500    8.0000002500    8.8322251600
   8.5872830000    7.9999894300   10.0224037300
  11.4126553400    7.9999898600   10.0224214600
   9.2787854397    7.9999802900   13.5650470701
  10.7211566903    7.9999798400   13.5650388201
   9.2931559100    7.9999997400    6.3782097100
  10.7069079700    8.0000004000    6.3782225500
   8.5861580307    7.9999909400   14.8060604605
  11.4138110593    7.9999877300   14.8060326505
   8.6038050100    7.9999905000    5.1627473100
  11.3963144200    7.9999987400    5.1627951200
   9.2863811612    7.9999962800   15.9962742191
  10.7136379088    8.0000035000   15.9962539191
   9.3020644700    7.9999877900    3.9518990000
  10.6980763600    8.0000026300    3.9519190600
   7.4958765000    8.0000011900   10.0406732100
  12.5040630700    8.0000108300   10.0407296900
   7.6236835700    8.0000297200    7.6012274100
  12.3763179900    8.0000302700    7.6013137700
   7.4972288802    8.0000075000   14.7780639214
  12.5027506198    8.0000056500   14.7779975114
   7.5117309500    7.9999986500    5.1706977600
  12.4884018100    8.0000108300    5.1707671400
   8.7518646408    8.0000201900   16.9438888799
  11.2481690692    8.0000014300   16.9438667399
   8.7503894200    8.0000045300    3.0121666200
  11.2497336500    8.0000048700    3.0021572200
