generated by RamanPy, mode 86 displacement -0.01
1.0
  15.0000000000    0.0000000000    0.0000000000
   0.0000000000   15.0000000000    0.0000000000
   0.0000000000    0.0000000000   25.0000000000
 N C H
 4 18 12
Cartesian
   8.6372593000    8.0018237408    7.6032083600
  11.3627490400    7.9982218292    7.6032476300
   8.5704518700    8.0042183220   12.4096601400
  11.4294696000    7.9957463380   12.4096493400
   9.2726309000    8.0003042101   11.2710787300
  10.7272802600    7.9996423498   11.2710882100
   9.2762300300    7.9988359195    8.8322073300
  10.7237291300    8.0011665605    8.8322169000
   8.5872813600    7.9963958183   10.0223578500
  11.4126588500    8.0035869117   10.0223768300
   9.2780202700    8.0018249209   13.5653820000
  10.7219210900    7.9981546192   13.5653717200
   9.2931491300    8.0003754202    6.3782392300
  10.7069185900    7.9996236398    6.3782492300
   8.5882002500    7.9992190896   14.8075737600
  11.4117711000    8.0007850404   14.8075440500
   8.6037694900    7.9997753599    5.1627595900
  11.3963392400    8.0002148801    5.1628003300
   9.2900699900    7.9978091290   15.9936248100
  10.7099509800    8.0021764610   15.9936052600
   9.3020399200    7.9996116598    3.9518599900
  10.6980998700    8.0003784602    3.9518803400
   7.4958803900    7.9985038393   10.0408094300
  12.5040596400    8.0015078607   10.0408684400
   7.6236898900    8.0006092003    7.6012496800
  12.3763096900    7.9994443497    7.6013393200
   7.4978100400    7.9993788797   14.7821514600
  12.5021704600    8.0006398703   14.7820816800
   7.5117198900    7.9998727899    5.1707200900
  12.4884097700    8.0001375201    5.1707806600
   8.7540898300    7.9985008493   16.9436714200
  11.2459403700    8.0015082107   16.9436516100
   8.7503900700    7.9997600399    3.0121500000
  11.2497501000    8.0002503901    3.0021502200
