generated by RamanPy, mode 3 displacement -0.01
1.0
  15.0000000000    0.0000000000    0.0000000000
   0.0000000000   15.0000000000    0.0000000000
   0.0000000000    0.0000000000   25.0000000000
 N C H
 4 18 12
Cartesian
   8.6372553600    8.0000199600    7.6032059600
  11.3627544900    8.0000299900    7.6032461000
   8.5704502200    7.9999899700   12.4096599600
  11.4294697700    7.9999899900   12.4096501200
   9.2726305700    7.9999800100   11.2710808200
  10.7272793900    7.9999800300   11.2710909000
   9.2762325800    8.0000000000    8.8322115700
  10.7237273300    7.9999999900    8.8322214900
   8.5872772600    7.9999900100   10.0223592000
  11.4126636800    7.9999900300   10.0223792300
   9.2780199200    7.9999799800   13.5653797100
  10.7219200600    7.9999800000   13.5653697100
   9.2931595100    7.9999999100    6.3782738100
  10.7069106900    7.9999999600    6.3782834200
   8.5882032500    7.9999899900   14.8075703700
  11.4117674100    7.9999900100   14.8075403600
   8.6032747700    7.9999899900    5.1628344100
  11.3968317100    7.9999999800    5.1628740900
   9.2900726400    8.0000000500   15.9936145100
  10.7099481100    8.0000000000   15.9935960100
   9.3009645501    7.9999900100    3.9501180101
  10.6991636699    7.9999998800    3.9501598001
   7.4958870100    8.0000000500   10.0408102000
  12.5040496000    8.0000100200   10.0408701400
   7.6236944900    8.0000299200    7.6012433300
  12.3763059500    8.0000300200    7.6013332100
   7.4977993300    8.0000099700   14.7821496400
  12.5021783100    7.9999998400   14.7820797000
   7.5132157099    8.0000000100    5.1706904800
  12.4869243001    8.0000099000    5.1707504600
   8.7540805100    8.0000101100   16.9436868800
  11.2459467000    8.0000100100   16.9436619900
   8.7537573698    7.9999993300    3.0178603696
  11.2464267902    8.0000098700    3.0077873096
