generated by RamanPy, mode 64 displacement 0.01
1.0
  15.0000000000    0.0000000000    0.0000000000
   0.0000000000   15.0000000000    0.0000000000
   0.0000000000    0.0000000000   25.0000000000
 N C H
 4 18 12
Cartesian
   8.6380298599    8.0000138200    7.6038469300
  11.3619874401    8.0000310100    7.6038812800
   8.5744158297    8.0000048200   12.4096585000
  11.4255007303    7.9999820300   12.4096484100
   9.2747045898    7.9998967500   11.2713609400
  10.7252056202    8.0000692700   11.2713678800
   9.2771620399    7.9999854000    8.8322286400
  10.7227955401    8.0000132600    8.8322313800
   8.5907851197    7.9999870300   10.0232744499
  11.4091497903    7.9999870000   10.0232856199
   9.2797140199    8.0000310700   13.5649626400
  10.7202263601    7.9999058500   13.5649527600
   9.2930865600    7.9999965800    6.3781413000
  10.7069870400    8.0000294800    6.3781520400
   8.5908638598    7.9999798100   14.8065482901
  11.4091084102    8.0000298500   14.8065179201
   8.6034524400    7.9999824600    5.1625587900
  11.3966552800    7.9999852200    5.1626012900
   9.2901911000    8.0000463900   15.9937458600
  10.7098281500    7.9999649200   15.9937248400
   9.3019931700    7.9999690400    3.9516378800
  10.6981429200    7.9999897100    3.9516652800
   7.4969235699    8.0000661800   10.0414917800
  12.5030150501    7.9999428500   10.0415478500
   7.6238975900    8.0000440400    7.6016527100
  12.3761043300    8.0000195200    7.6017412000
   7.4986066399    7.9999530800   14.7813680301
  12.5013740601    8.0000251300   14.7812977901
   7.5116272400    8.0000316600    5.1706143000
  12.4885018900    8.0000289400    5.1706737200
   8.7535251600    7.9999872200   16.9433545600
  11.2465021300    7.9999865400   16.9433354300
   8.7504179200    8.0000423200    3.0120576700
  11.2497247700    8.0000544300    3.0020618900
