30  1 1.0e-02 
  0.997907911234823     
     2.5744747587826007    1.4863736950050308    4.6178143141981334
    -2.5744747587826007    1.4863736950050308    4.6178143141981334
    -0.0000000000000000   -2.9727473900100621    4.6178143141981334
   Li   Nb   O 
     2     2     6
Cartesian
  -0.0001208342    0.0031180986    9.9252471229
  -0.0001400107    0.0031193516    3.0130181663
  -0.0001306948    0.0031645690    0.0079558101
  -0.0001336912    0.0031644601    6.9201857473
   1.5636229613   -0.1606248401    8.3310225225
  -0.9238727381   -1.2692154793    8.3309852590
  -0.6401849646    1.4393540203    8.3309815544
  -1.6454813576    0.2140487534    6.0269103929
   1.0052020900    1.3226375948    6.0269445512
   0.6399221041   -1.5271734646    6.0269045092
