generated by RamanPy, mode 15 displacement 0.01
1.0
   2.5690887290    1.4832640690    4.6081534370
  -2.5690887290    1.4832640690    4.6081534370
   0.0000000000   -2.9665281390    4.6081534370
 Li Nb O
 2 2 6
Cartesian
   0.0000097800   -0.0000273200    9.9237321200
  -0.0000046700   -0.0000288400    3.0114968500
   0.0000034000    0.0000029200    0.0087101400
  -0.0000054400    0.0000045500    6.9209413800
   1.5668298899   -0.1612600401    8.3307570700
  -0.9230822400   -1.2762678999    8.3307533100
  -0.6437463199    1.4375403500    8.3307708300
  -1.6460099000    0.2069998701    6.0266742800
   1.0022605901    1.3220026399    6.0266791600
   0.6437489699   -1.5289895200    6.0266933900
