generated by RamanPy, mode 13 displacement -0.01
1.0
  15.0000000000    0.0000000000    0.0000000000
   0.0000000000   15.0000000000    0.0000000000
   0.0000000000    0.0000000000   25.0000000000
 N C H
 4 18 12
Cartesian
   8.6373853300    8.0000199800    7.6025522197
  11.3628759701    8.0000300800    7.6039080703
   8.5705624200    7.9999899800   12.4100759802
  11.4295823900    7.9999900200   12.4092340198
   9.2728903801    7.9999799300   11.2726492306
  10.7275403401    7.9999799800   11.2695204794
   9.2750985096    7.9999999800    8.8359507815
  10.7225980096    8.0000001000    8.8284796785
   8.5879625703    7.9999900400   10.0186527885
  11.4133429903    7.9999898900   10.0260874515
   9.2780717800    7.9999800000   13.5635850693
  10.7219722400    7.9999800300   13.5671658707
   9.2928599999    8.0000000200    6.3768230294
  10.7066309799    7.9999999400    6.3796657206
   8.5884230701    7.9999900300   14.8095275008
  11.4119922401    7.9999899700   14.8055824392
   8.6037843400    7.9999899900    5.1644380307
  11.3963537600    7.9999999700    5.1611229993
   9.2894946298    8.0000000200   15.9924076595
  10.7093740098    8.0000000300   15.9948118205
   9.3023536801    7.9999899800    3.9510528297
  10.6984154801    8.0000000100    3.9526871203
   7.4961850601    8.0000000500   10.0419049504
  12.5043650901    8.0000100300   10.0397749596
   7.6237310200    8.0000299800    7.6019506503
  12.3763510900    8.0000300200    7.6006385397
   7.4979049200    8.0000098900   14.7815173097
  12.5022647500    8.0000002200   14.7827122503
   7.5117452300    7.9999999600    5.1701416298
  12.4884349400    8.0000099800    5.1713566002
   8.7545347402    8.0000099600   16.9436288500
  11.2463847602    8.0000099600   16.9436911400
   8.7501500999    7.9999999700    3.0120902800
  11.2495094499    8.0000099100    3.0022091100
