generated by RamanPy, mode 96 displacement -0.01
1.0
  15.0000000000    0.0000000000    0.0000000000
   0.0000000000   15.0000000000    0.0000000000
   0.0000000000    0.0000000000   25.0000000000
 N C H
 4 18 12
Cartesian
   8.6372200900    7.9971057202    7.6032748100
  11.3627100200    7.9974966501    7.6032679500
   8.5704900300    7.9990721800   12.4097275700
  11.4295096500    7.9993409800   12.4096719100
   9.2726503000    7.9984370701   11.2711313100
  10.7273006800    7.9985697601   11.2711194500
   9.2762133800    7.9976806601    8.8322600200
  10.7237134400    7.9978449501    8.8322476300
   8.5872816100    7.9978698601   10.0224208800
  11.4126618600    7.9981524901   10.0223977800
   9.2780734300    8.0001639000   13.5654330900
  10.7219737000    8.0002850200   13.5654015500
   9.2930928600    7.9995433300    6.3782890700
  10.7068626700    7.9997302100    6.3782768400
   8.5882711100    8.0012988099   14.8076334400
  11.4118415400    8.0015326599   14.8075620700
   8.6036936200    8.0015204699    5.1628200700
  11.3962624700    8.0018999399    5.1628158000
   9.2901583400    8.0025560799   15.9936733400
  10.7100385600    8.0026736499   15.9936324700
   9.3019443000    8.0036510198    3.9519096100
  10.6980032300    8.0038445598    3.9519075600
   7.4958804900    7.9993886600   10.0408322300
  12.5040606900    7.9995465700   10.0408701600
   7.6236793000    7.9993544700    7.6012724300
  12.3762993200    7.9995297600    7.6013397300
   7.4978303900    8.0003595400   14.7821729900
  12.5021905900    8.0004702100   14.7820820700
   7.5116980700    8.0004103900    5.1707423300
  12.4883876000    8.0006112400    5.1707793800
   8.7541195600    8.0010111599   16.9436877400
  11.2459695300    8.0010714299   16.9436571900
   8.7503582700    8.0015031199    3.0121668500
  11.2497176000    8.0016094199    3.0021554900
