
     Program PWSCF v.7.5 starts on 19Dec2025 at 17:39:59 

     This program is part of the open-source Quantum ESPRESSO suite
     for quantum simulation of materials; please cite
         "P. Giannozzi et al., J. Phys.:Condens. Matter 21 395502 (2009);
         "P. Giannozzi et al., J. Phys.:Condens. Matter 29 465901 (2017);
         "P. Giannozzi et al., J. Chem. Phys. 152 154105 (2020);
          URL http://www.quantum-espresso.org", 
     in publications or presentations arising from this work. More details at
     http://www.quantum-espresso.org/quote

     Parallel version (MPI), running on    96 processors

     MPI processes distributed on     1 nodes
     352327 MiB available memory on the printing compute node when the environment starts
 
     Reading input from scf.in
Warning: card &CELL ignored

     Current dimensions of program PWSCF are:
     Max number of different atomic species (ntypx) = 10
     Max number of k-points (npk) =  40000
     Max angular momentum in pseudopotentials (lmaxx) =  4
 
     K-points division:     npool     =       3
     R & G space division:  proc/nbgrp/npool/nimage =      32
     Subspace diagonalization in iterative solution of the eigenvalue problem:
     a serial algorithm will be used

 
     Parallelization info
     --------------------
     sticks:   dense  smooth     PW     G-vecs:    dense   smooth      PW
     Min          87      87     25                 2997     2997     451
     Max          88      88     26                 3001     3001     454
     Sum        2813    2813    803                96001    96001   14483
 
     Using Slab Decomposition
 


     bravais-lattice index     =            0
     lattice parameter (alat)  =      10.3566  a.u.
     unit-cell volume          =     711.0045 (a.u.)^3
     number of atoms/cell      =           10
     number of atomic types    =            3
     number of electrons       =        68.00
     number of Kohn-Sham states=           60
     kinetic-energy cutoff     =     100.0000  Ry
     charge density cutoff     =     400.0000  Ry
     scf convergence threshold =      1.0E-10
     mixing beta               =       0.7000
     number of iterations used =            8  plain     mixing
     Exchange-correlation= PBESOL
                           (   1   4  10   8   0   0   0)

     celldm(1)=  10.356556  celldm(2)=   0.000000  celldm(3)=   0.000000
     celldm(4)=   0.000000  celldm(5)=   0.000000  celldm(6)=   0.000000

     crystal axes: (cart. coord. in units of alat)
               a(1) = (   0.468773   0.270646   0.840834 )  
               a(2) = (  -0.468773   0.270646   0.840834 )  
               a(3) = (   0.000000  -0.541292   0.840834 )  

     reciprocal axes: (cart. coord. in units 2 pi/alat)
               b(1) = (  1.066614  0.615810  0.396432 )  
               b(2) = ( -1.066614  0.615810  0.396432 )  
               b(3) = (  0.000000 -1.231620  0.396432 )  


     PseudoPot. # 1 for Li read from file:
     ./Li.upf
     MD5 check sum: dc9f6e608df41cc7e5665a263ba47fe0
     Pseudo is Norm-conserving, Zval =  3.0
     Generated using ONCVPSP code by D. R. Hamann
     Using radial grid of 1944 points,  4 beta functions with: 
                l(1) =   0
                l(2) =   0
                l(3) =   1
                l(4) =   1

     PseudoPot. # 2 for Nb read from file:
     ./Nb.upf
     MD5 check sum: f0922cae2acd95e7020481ef16123e2a
     Pseudo is Norm-conserving + core correction, Zval = 13.0
     Generated using ONCVPSP code by D. R. Hamann
     Using radial grid of 1660 points,  6 beta functions with: 
                l(1) =   0
                l(2) =   0
                l(3) =   1
                l(4) =   1
                l(5) =   2
                l(6) =   2

     PseudoPot. # 3 for O  read from file:
     ./O.upf
     MD5 check sum: f226cbcd508cec715ff87a8f75a1dfba
     Pseudo is Norm-conserving + core correction, Zval =  6.0
     Generated using ONCVPSP code by D. R. Hamann
     Using radial grid of  936 points,  5 beta functions with: 
                l(1) =   0
                l(2) =   0
                l(3) =   1
                l(4) =   1
                l(5) =   2

     atomic species   valence    mass     pseudopotential
     Li                3.00     6.94100     Li( 1.00)
     Nb               13.00    92.90600     Nb( 1.00)
     O                 6.00    16.00000     O ( 1.00)

     No symmetry found



   Cartesian axes

     site n.     atom                  positions (alat units)
         1        Li     tau(   1) = (   0.0000001  -0.0000000   1.8111576  )
         2        Li     tau(   2) = (  -0.0000000  -0.0000000   0.5499063  )
         3        Nb     tau(   3) = (  -0.0000000   0.0000000   0.0014448  )
         4        Nb     tau(   4) = (  -0.0000000   0.0000000   1.2626963  )
         5        O      tau(   5) = (   0.2853474  -0.0298773   1.5201374  )
         6        O      tau(   6) = (  -0.1685482  -0.2321794   1.5201374  )
         7        O      tau(   7) = (  -0.1167991   0.2620567   1.5201375  )
         8        O      tau(   8) = (  -0.3002248   0.0384669   1.0997202  )
         9        O      tau(   9) = (   0.1834257   0.2407689   1.0997202  )
        10        O      tau(  10) = (   0.1167991  -0.2792358   1.0997202  )

     number of k points=   216  Gaussian smearing, width (Ry)=  0.0200

     Number of k-points >= 100: set verbosity='high' to print them.

     Dense  grid:    96001 G-vectors     FFT dimensions: (  72,  72,  72)

     Estimated max dynamical RAM per process >      35.27 MB

     Estimated total dynamical RAM >       3.26 GB

     Initial potential from superposition of free atoms

     starting charge      67.9863, renormalised to      68.0000
     Starting wfcs are   48 randomized atomic wfcs +   12 random wfcs

     total cpu time spent up to now is        4.3 secs

     Self-consistent Calculation

     iteration #  1     ecut=   100.00 Ry     beta= 0.70
     Davidson diagonalization with overlap
     ethr =  1.00E-02,  avg # of iterations =  5.5

     total cpu time spent up to now is       55.5 secs

     total energy              =    -474.18510044 Ry
     estimated scf accuracy    <       4.37931601 Ry

     iteration #  2     ecut=   100.00 Ry     beta= 0.70
     Davidson diagonalization with overlap
     ethr =  6.44E-03,  avg # of iterations =  2.0

     total cpu time spent up to now is       87.9 secs

     total energy              =    -472.17930052 Ry
     estimated scf accuracy    <      20.54391780 Ry

     iteration #  3     ecut=   100.00 Ry     beta= 0.70
     Davidson diagonalization with overlap
     ethr =  6.44E-03,  avg # of iterations =  2.0

     total cpu time spent up to now is      205.5 secs

     total energy              =    -476.45160472 Ry
     estimated scf accuracy    <       0.57306804 Ry

     iteration #  4     ecut=   100.00 Ry     beta= 0.70
     Davidson diagonalization with overlap
     ethr =  8.43E-04,  avg # of iterations =  1.0

     total cpu time spent up to now is      215.3 secs

     total energy              =    -476.34696302 Ry
     estimated scf accuracy    <       0.25904644 Ry

     iteration #  5     ecut=   100.00 Ry     beta= 0.70
     Davidson diagonalization with overlap
     ethr =  3.81E-04,  avg # of iterations =  1.2

     total cpu time spent up to now is      224.6 secs

     total energy              =    -476.39844899 Ry
     estimated scf accuracy    <       0.00257723 Ry

     iteration #  6     ecut=   100.00 Ry     beta= 0.70
     Davidson diagonalization with overlap
     ethr =  3.79E-06,  avg # of iterations =  7.1

     total cpu time spent up to now is      236.4 secs

     total energy              =    -476.39887103 Ry
     estimated scf accuracy    <       0.00023738 Ry

     iteration #  7     ecut=   100.00 Ry     beta= 0.70
     Davidson diagonalization with overlap
     ethr =  3.49E-07,  avg # of iterations =  1.0

     total cpu time spent up to now is      241.0 secs

     total energy              =    -476.39889284 Ry
     estimated scf accuracy    <       0.00001586 Ry

     iteration #  8     ecut=   100.00 Ry     beta= 0.70
     Davidson diagonalization with overlap
     ethr =  2.33E-08,  avg # of iterations =  1.8

     total cpu time spent up to now is      246.2 secs

     total energy              =    -476.39889525 Ry
     estimated scf accuracy    <       0.00000559 Ry

     iteration #  9     ecut=   100.00 Ry     beta= 0.70
     Davidson diagonalization with overlap
     ethr =  8.22E-09,  avg # of iterations =  1.0

     total cpu time spent up to now is      252.1 secs

     total energy              =    -476.39889625 Ry
     estimated scf accuracy    <       0.00000070 Ry

     iteration # 10     ecut=   100.00 Ry     beta= 0.70
     Davidson diagonalization with overlap
     ethr =  1.03E-09,  avg # of iterations =  1.0

     total cpu time spent up to now is      258.6 secs

     total energy              =    -476.39889621 Ry
     estimated scf accuracy    <       0.00000024 Ry

     iteration # 11     ecut=   100.00 Ry     beta= 0.70
     Davidson diagonalization with overlap
     ethr =  3.54E-10,  avg # of iterations =  1.0

     total cpu time spent up to now is      279.8 secs

     total energy              =    -476.39889623 Ry
     estimated scf accuracy    <       0.00000002 Ry

     iteration # 12     ecut=   100.00 Ry     beta= 0.70
     Davidson diagonalization with overlap
     ethr =  3.42E-11,  avg # of iterations =  1.1

     total cpu time spent up to now is      284.2 secs

     total energy              =    -476.39889624 Ry
     estimated scf accuracy    <          6.1E-10 Ry

     iteration # 13     ecut=   100.00 Ry     beta= 0.70
     Davidson diagonalization with overlap
     ethr =  8.99E-13,  avg # of iterations =  2.0

     total cpu time spent up to now is      289.3 secs

     total energy              =    -476.39889624 Ry
     estimated scf accuracy    <          1.7E-10 Ry

     iteration # 14     ecut=   100.00 Ry     beta= 0.70
     Davidson diagonalization with overlap
     ethr =  2.56E-13,  avg # of iterations =  1.0

     total cpu time spent up to now is      296.8 secs

     End of self-consistent calculation

     Number of k-points >= 100: set verbosity='high' to print the bands.

     the Fermi energy is     9.2379 ev

!    total energy              =    -476.39889624 Ry
     estimated scf accuracy    <          7.0E-12 Ry
     smearing contrib. (-TS)   =      -0.00000000 Ry
     internal energy E=F+TS    =    -476.39889624 Ry

     The total energy is F=E-TS. E is the sum of the following terms:
     one-electron contribution =    -142.18983547 Ry
     hartree contribution      =     103.98069999 Ry
     xc contribution           =    -108.02114951 Ry
     ewald contribution        =    -330.16861125 Ry

     convergence has been achieved in  14 iterations

     Writing all to output data dir out/pwscf.save/ :
     XML data file, charge density, pseudopotentials, collected wavefunctions
 
     init_run     :      2.14s CPU      2.30s WALL (       1 calls)
     electrons    :    287.20s CPU    292.54s WALL (       1 calls)

     Called by init_run:
     wfcinit      :      1.98s CPU      2.04s WALL (       1 calls)
     potinit      :      0.02s CPU      0.02s WALL (       1 calls)
     hinit0       :      0.12s CPU      0.20s WALL (       1 calls)

     Called by electrons:
     c_bands      :    231.08s CPU    235.25s WALL (      14 calls)
     sum_band     :     54.82s CPU     55.89s WALL (      14 calls)
     v_of_rho     :      0.67s CPU      0.69s WALL (      15 calls)
     mix_rho      :      0.28s CPU      0.28s WALL (      14 calls)

     Called by c_bands:
     init_us_2    :      0.80s CPU      0.90s WALL (    2088 calls)
     cegterg      :    166.72s CPU    169.04s WALL (    1008 calls)

     Called by *egterg:
     cdiaghg      :     10.81s CPU     10.95s WALL (    3084 calls)
     h_psi        :    141.52s CPU    143.56s WALL (    3156 calls)
     g_psi        :      0.08s CPU      0.10s WALL (    2076 calls)

     Called by h_psi:
     h_psi:calbec :      6.26s CPU      6.36s WALL (    3156 calls)
     vloc_psi     :    133.78s CPU    135.70s WALL (    3156 calls)
                                        0.00s GPU  (    3156 calls)
     add_vuspsi   :      1.33s CPU      1.35s WALL (    3156 calls)

     General routines
     calbec       :      6.25s CPU      6.35s WALL (    3156 calls)
     fft          :      0.28s CPU      0.36s WALL (     150 calls)
     ffts         :      0.11s CPU      0.11s WALL (      14 calls)
     fftw         :    181.31s CPU    183.89s WALL (  338768 calls)
 
     Parallel routines
 
     PWSCF        :   4m51.98s CPU   4m59.61s WALL

 
   This run was terminated on:  17:44:59  19Dec2025            

=------------------------------------------------------------------------------=
   JOB DONE.
=------------------------------------------------------------------------------=
