generated by RamanPy, mode 9 displacement 0.01
1.0
   2.5690887290    1.4832640690    4.6081534370
  -2.5690887290    1.4832640690    4.6081534370
   0.0000000000   -2.9665281390    4.6081534370
 Li Nb O
 2 2 6
Cartesian
  -0.0009602401    0.0001043600    9.9252704000
   0.0009326101    0.0001025600    3.0130405400
   0.0000394600   -0.0004375001    0.0079801000
  -0.0000366300   -0.0004375101    6.9202103300
   1.5656868002   -0.1607070796    8.3341603804
  -0.9242379501   -1.2734230901    8.3297839698
  -0.6357623795    1.4351075099    8.3291144498
  -1.6448461999    0.2098610899    6.0256969698
   1.0033952098    1.3225572004    6.0300800404
   0.6357707395   -1.5314256701    6.0250426198
