generated by RamanPy, mode 18 displacement 0.01
1.0
   2.5690887290    1.4832640690    4.6081534370
  -2.5690887290    1.4832640690    4.6081534370
   0.0000000000   -2.9665281390    4.6081534370
 Li Nb O
 2 2 6
Cartesian
   0.0000140800   -0.0000236600    9.9211437196
   0.0000154500    0.0000247500    3.0171545104
  -0.0000103300   -0.0000057100    0.0058870098
  -0.0000103000    0.0000049600    6.9223053602
   1.5644911401   -0.1611496497    8.3324611501
  -0.9218051398   -1.2743213602    8.3324537401
  -0.6426742903    1.4354542999    8.3324631601
  -1.6434164598    0.2128289702    6.0255068699
   1.0060197601    1.3168313997    6.0255000099
   0.6374083197   -1.5296433799    6.0254963799
