generated by RamanPy, mode 11 displacement -0.01
1.0
   2.5690887290    1.4832640690    4.6081534370
  -2.5690887290    1.4832640690    4.6081534370
   0.0000000000   -2.9665281390    4.6081534370
 Li Nb O
 2 2 6
Cartesian
   0.0036280700    0.0049303099    9.9252594000
   0.0016618300   -0.0059071699    3.0130506900
  -0.0016120700   -0.0014512200    0.0079756000
  -0.0010064500    0.0019229000    6.9202127500
   1.5653923500   -0.1628304700    8.3309693700
  -0.9243769200   -1.2715737000    8.3319543100
  -0.6394210100    1.4351031800    8.3301363400
  -1.6458228700    0.2095561700    6.0262303700
   1.0069887400    1.3187680200    6.0266175200
   0.6400778500   -1.5295189600    6.0279761000
