generated by RamanPy, mode 89 displacement 0.01
1.0
  15.0000000000    0.0000000000    0.0000000000
   0.0000000000   15.0000000000    0.0000000000
   0.0000000000    0.0000000000   25.0000000000
 N C H
 4 18 12
Cartesian
   8.6397726297    8.0000230700    7.6035200500
  11.3652630797    8.0000258600    7.6029505800
   8.5679261803    7.9999882900   12.4099913000
  11.4269496303    7.9999943000   12.4093015000
   9.2705679103    7.9999791000   11.2712090500
  10.7252177703    7.9999817700   11.2709479400
   9.2780123098    7.9999987800    8.8323389300
  10.7255102398    7.9999988100    8.8320915000
   8.5872009700    7.9999876900   10.0215921301
  11.4125816400    7.9999923600   10.0231409199
   9.2759746703    7.9999789700   13.5657785699
  10.7198760403    7.9999822400   13.5649546201
   9.2952528297    8.0000047000    6.3787493399
  10.7090214897    8.0000041900    6.3777587101
   8.5881388500    7.9999863900   14.8092420598
  11.4117107800    7.9999929100   14.8058515602
   8.6039337200    7.9999906700    5.1645325998
  11.3965027600    8.0000063000    5.1610511902
   9.2919769697    8.0000005800   15.9943252099
  10.7118586197    8.0000041300   15.9928797201
   9.3001641902    7.9999858500    3.9526803099
  10.6962234802    7.9999998400    3.9510865201
   7.4958412400    7.9999994800   10.0398977801
  12.5040213100    8.0000115500   10.0417795499
   7.6243614499    8.0000318100    7.6012571400
  12.3769813999    8.0000272200    7.6013366400
   7.4977745800    8.0000083000   14.7832770199
  12.5021353100    7.9999991500   14.7809484101
   7.5117707400    7.9999995000    5.1718393699
  12.4884602600    8.0000123300    5.1696684301
   8.7549794099    8.0000103500   16.9440679599
  11.2468302999    8.0000116300   16.9432479201
   8.7494853501    7.9999967500    3.0126016499
  11.2488449301    8.0000087700    3.0017063401
