generated by RamanPy, mode 60 displacement -0.01
1.0
  15.0000000000    0.0000000000    0.0000000000
   0.0000000000   15.0000000000    0.0000000000
   0.0000000000    0.0000000000   25.0000000000
 N C H
 4 18 12
Cartesian
   8.6372614200    8.0003566102    7.6032132500
  11.3627518500    7.9996936998    7.6032501400
   8.5704452100    7.9980937891   12.4096589000
  11.4294685900    8.0018854109   12.4096472200
   9.2726309300    8.0024838912   11.2710803700
  10.7272800600    7.9974779188   11.2710869900
   9.2762302600    7.9993199397    8.8322131100
  10.7237288300    8.0006808403    8.8322184000
   8.5872809600    8.0012336706   10.0223630800
  11.4126586200    7.9987455794   10.0223766100
   9.2780179900    8.0036939217   13.5653794600
  10.7219205900    7.9962654683   13.5653696600
   9.2931503600    8.0001695301    6.3782395800
  10.7069219800    7.9998297599    6.3782503300
   8.5881979400    8.0001170401   14.8075692600
  11.4117719000    7.9998644599   14.8075425100
   8.6037693900    8.0000860600    5.1627577000
  11.3963418300    7.9999040000    5.1628007400
   9.2900708400    8.0019763809   15.9936177400
  10.7099521300    7.9980217091   15.9936041800
   9.3020394400    8.0001053901    3.9518569700
  10.6980992800    7.9998857199    3.9518823300
   7.4958801700    7.9970548486   10.0408110700
  12.5040594600    8.0029577114   10.0408690300
   7.6236903200    7.9997794999    7.6012512800
  12.3763105000    8.0002800501    7.6013410000
   7.4978093200    7.9967832185   14.7821511100
  12.5021705100    8.0032260715   14.7820804500
   7.5117197700    7.9996986499    5.1707195100
  12.4884104700    8.0003100601    5.1707795200
   8.7540892600    7.9990183095   16.9436689300
  11.2459393400    8.0010035405   16.9436519900
   8.7503905300    7.9998766699    3.0121487400
  11.2497499500    8.0001300101    3.0021508400
