generated by RamanPy, mode 32 displacement 0.01
1.0
  15.0000000000    0.0000000000    0.0000000000
   0.0000000000   15.0000000000    0.0000000000
   0.0000000000    0.0000000000   25.0000000000
 N C H
 4 18 12
Cartesian
   8.6393792599    8.0000199300    7.6035694100
  11.3648747599    8.0000299400    7.6028924700
   8.5724660499    7.9999897500   12.4097928000
  11.4314834399    7.9999899300   12.4095013200
   9.2705253401    7.9999798800   11.2719408000
  10.7251773301    7.9999801100   11.2702408300
   9.2733323901    8.0000002400    8.8312002100
  10.7208383501    7.9999998100    8.8332320500
   8.5894327799    7.9999898600   10.0230929000
  11.4148146199    7.9999901300   10.0216475300
   9.2764674801    7.9999801500   13.5638432801
  10.7203663301    7.9999803500   13.5669216699
   9.2911117201    8.0000001000    6.3778455900
  10.7048826101    7.9999999100    6.3786312800
   8.5887830900    7.9999902300   14.8066649800
  11.4123510400    7.9999892300   14.8084383000
   8.6045685000    7.9999900200    5.1626530700
  11.3971349000    7.9999999300    5.1629020500
   9.2897284900    8.0000000100   15.9941971500
  10.7096000400    8.0000002500   15.9930230900
   9.3025385900    7.9999899800    3.9514557700
  10.6985971300    7.9999999300    3.9522877400
   7.4964971000    8.0000001200   10.0395776100
  12.5046775500    8.0000098700   10.0420991300
   7.6242602000    8.0000300300    7.6020851200
  12.3768816600    8.0000302800    7.6005179300
   7.4979627700    8.0000093300   14.7823915000
  12.5023222200    8.0000032300   14.7818398400
   7.5119646700    8.0000001200    5.1728394899
  12.4886533500    8.0000103400    5.1686733501
   8.7549290400    8.0000101000   16.9443669200
  11.2467831700    8.0000094600   16.9429496900
   8.7494819400    8.0000000400    3.0126620400
  11.2488431200    8.0000100300    3.0016403300
