generated by RamanPy, mode 4 displacement -0.01
1.0
   2.5690887290    1.4832640690    4.6081534370
  -2.5690887290    1.4832640690    4.6081534370
   0.0000000000   -2.9665281390    4.6081534370
 Li Nb O
 2 2 6
Cartesian
  -0.0000013300    0.0000000600    9.9248547200
   0.0000014300    0.0000003300    3.0126246400
  -0.0000003200   -0.0000001600    0.0068346399
   0.0000003000   -0.0000001400    6.9190647599
   1.5663281502   -0.1667325203    8.3320305801
  -0.9275613803   -1.2731157401    8.3320299201
  -0.6387654699    1.4398485003    8.3320309801
  -1.6415284797    0.2101543899    6.0279498101
   1.0027618498    1.3165273897    6.0279504801
   0.6387653499   -1.5266814097    6.0279509601
