generated by RamanPy, mode 94 displacement 0.01
1.0
  15.0000000000    0.0000000000    0.0000000000
   0.0000000000   15.0000000000    0.0000000000
   0.0000000000    0.0000000000   25.0000000000
 N C H
 4 18 12
Cartesian
   8.6372585600    7.9964289404    7.6032080300
  11.3627489200    7.9963951804    7.6032483500
   8.5704482200    8.0028298697   12.4096610800
  11.4294700100    8.0027582997   12.4096476000
   9.2726276200    8.0024822097   11.2710803900
  10.7272780600    8.0024582697   11.2710888600
   9.2762280200    7.9993769701    8.8322092300
  10.7237283900    7.9993580201    8.8322184900
   8.5872779100    8.0015086298   10.0223598100
  11.4126579300    8.0014734498   10.0223787400
   9.2780205700    8.0015994098   13.5653802100
  10.7219209000    8.0015542798   13.5653685500
   9.2931493700    7.9983094102    6.3782375200
  10.7069195700    7.9982832302    6.3782479100
   8.5882035000    7.9995862000   14.8075719400
  11.4117735100    7.9994747201   14.8075374600
   8.6037703200    7.9998918400    5.1627567000
  11.3963401900    7.9998375200    5.1627981900
   9.2900759700    7.9970467103   15.9936206600
  10.7099558400    7.9969844103   15.9935988000
   9.3020412800    8.0014499399    3.9518573900
  10.6981008300    8.0014232399    3.9518780500
   7.4958794000    8.0004349600   10.0408097900
  12.5040594000    8.0004255700   10.0408696500
   7.6236895500    7.9992518901    7.6012492700
  12.3763098000    7.9992289101    7.6013396100
   7.4978110100    7.9998933600   14.7821512800
  12.5021710000    7.9998263400   14.7820785800
   7.5117201200    8.0000020100    5.1707185900
  12.4884100500    7.9999788600    5.1707795400
   8.7540921000    7.9985737901   16.9436703500
  11.2459421500    7.9985403602   16.9436493600
   8.7503906800    8.0007946899    3.0121491100
  11.2497502700    8.0007860799    3.0021495200
