generated by RamanPy, mode 45 displacement 0.01
1.0
  15.0000000000    0.0000000000    0.0000000000
   0.0000000000   15.0000000000    0.0000000000
   0.0000000000    0.0000000000   25.0000000000
 N C H
 4 18 12
Cartesian
   8.6373079000    8.0000199400    7.6029002699
  11.3627004500    8.0000297200    7.6029383199
   8.5704060100    7.9999900600   12.4096797200
  11.4295138500    7.9999898300   12.4096693100
   9.2727283900    7.9999797400   11.2711397500
  10.7271812500    7.9999804800   11.2711506100
   9.2758455799    7.9999997400    8.8318849699
  10.7241125101    8.0000002000    8.8318973499
   8.5872329600    7.9999898700   10.0223535300
  11.4127107700    7.9999894800   10.0223760500
   9.2780221500    7.9999799700   13.5654058900
  10.7219193200    7.9999802000   13.5653955400
   9.2936631702    7.9999994000    6.3787498802
  10.7064100998    8.0000004300    6.3787561102
   8.5881926100    7.9999892400   14.8075476200
  11.4117745500    7.9999887200   14.8075182700
   8.6016210893    7.9999925200    5.1647651006
  11.3984869407    7.9999997700    5.1647997506
   9.2900470000    8.0000006100   15.9936349200
  10.7099733900    8.0000003300   15.9936153500
   9.2989490390    7.9999848900    3.9488689190
  10.7011893110    8.0000035900    3.9488899290
   7.4958693200    8.0000006500   10.0411381501
  12.5040716600    8.0000104500   10.0411998101
   7.6237002100    8.0000288400    7.6007674998
  12.3762993900    8.0000298800    7.6008569998
   7.4978087300    8.0000103400   14.7820972000
  12.5021703600    8.0000032700   14.7820291800
   7.5110437798    7.9999957600    5.1747462113
  12.4890853902    8.0000108000    5.1748066013
   8.7540724400    8.0000095200   16.9436685800
  11.2459604300    8.0000092300   16.9436471400
   8.7481709393    8.0000150900    3.0119445099
  11.2519756107    8.0000039500    3.0019483999
