generated by RamanPy, mode 3 displacement -0.01
1.0
   2.5690887290    1.4832640690    4.6081534370
  -2.5690887290    1.4832640690    4.6081534370
   0.0000000000   -2.9665281390    4.6081534370
 Li Nb O
 2 2 6
Cartesian
   0.0006021100   -0.0001175000    9.9252699400
  -0.0003939400   -0.0004706000    3.0130400000
  -0.0027675200    0.0001076200    0.0079800800
   0.0020849300    0.0018233700    6.9202100400
   1.5656962500   -0.1661414700    8.3324715300
  -0.9193352701   -1.2714895600    8.3283910000
  -0.6396872700    1.4375932800    8.3321973300
  -1.6482005100    0.2115543100    6.0249948200
   1.0023570600    1.3160490600    6.0294502100
   0.6406764600   -1.5318280200    6.0263748300
