generated by RamanPy, mode 11 displacement -0.01
1.0
  15.0000000000    0.0000000000    0.0000000000
   0.0000000000   15.0000000000    0.0000000000
   0.0000000000    0.0000000000   25.0000000000
 N C H
 4 18 12
Cartesian
   8.6372646100    8.0000200200    7.6032152500
  11.3627454900    8.0000300100    7.6032553900
   8.5704498200    7.9999900100   12.4096598800
  11.4294701500    7.9999900100   12.4096498800
   9.2726287400    7.9999800000   11.2710802000
  10.7272812900    7.9999799900   11.2710899400
   9.2762252100    8.0000000000    8.8322095800
  10.7237348200    7.9999999900    8.8322194200
   8.5872504100    7.9999899900   10.0223628300
  11.4126849000    7.9999899800   10.0223827800
   9.2780201400    7.9999800200   13.5653805000
  10.7219198700    7.9999800100   13.5653705400
   9.2931590800    8.0000000600    6.3781562500
  10.7069104200    7.9999999800    6.3781682100
   8.5881973200    7.9999900200   14.8075694600
  11.4117691800    7.9999900100   14.8075393900
   8.6057519105    7.9999899500    5.1627828300
  11.3944061995    8.0000000100    5.1628225200
   9.2900722000    7.9999999700   15.9936171200
  10.7099519900    8.0000000100   15.9936048900
   9.3017891799    7.9999900200    3.9515178699
  10.6983403801    8.0000000800    3.9515527599
   7.4959841100    7.9999999500   10.0408079800
  12.5039716800    8.0000099900   10.0408681800
   7.6236636000    8.0000300700    7.6012948000
  12.3763362800    8.0000300100    7.6013838400
   7.4978196700    8.0000100600   14.7821501800
  12.5021729500    8.0000000500   14.7820800600
   7.5050298882    8.0000001100    5.1707153800
  12.4949368417    8.0000101300    5.1707759300
   8.7540836100    8.0000100000   16.9436815200
  11.2459317000    8.0000099700   16.9436349900
   8.7511829102    8.0000000800    3.0134789004
  11.2489905398    8.0000099300    3.0034218903
