generated by RamanPy, mode 62 displacement -0.01
1.0
  15.0000000000    0.0000000000    0.0000000000
   0.0000000000   15.0000000000    0.0000000000
   0.0000000000    0.0000000000   25.0000000000
 N C H
 4 18 12
Cartesian
   8.6411561379    8.0000166100    7.6032995400
  11.3588626321    8.0000357800    7.6033373100
   8.5695452605    8.0000660600   12.4089977404
  11.4303540895    7.9999128700   12.4089811104
   9.2728509899    7.9994159303   11.2706706302
  10.7270632001    8.0005375197   11.2706669902
   9.2780209390    7.9998992101    8.8316133803
  10.7219425310    8.0000940499    8.8316137803
   8.5895931688    8.0000054600   10.0210921407
  11.4103629312    7.9999916300   10.0210932007
   9.2771173005    8.0003821698   13.5654495000
  10.7228178195    7.9995797302   13.5654456800
   9.2946238992    7.9997481401    6.3789556196
  10.7054384808    8.0002328699    6.3789688096
   8.5866935908    7.9998197801   14.8083385396
  11.4132758292    8.0001426699   14.8083304696
   8.6067983184    8.0000520700    5.1638647194
  11.3933174716    7.9999432600    5.1639178894
   9.2898996701    8.0002641299   15.9938532699
  10.7101255099    7.9997460601   15.9938604199
   9.3022445999    7.9998993400    3.9515584902
  10.6979062801    8.0001184799    3.9515859002
   7.4965551396    8.0004177198   10.0398731105
  12.5033890404    7.9995853802   10.0399258005
   7.6247495694    8.0001016100    7.6013388400
  12.3752530206    7.9999384600    7.6014299400
   7.4973557202    7.9997443901   14.7827042097
  12.5026237798    8.0002690599   14.7826394397
   7.5126103395    8.0001188699    5.1714430196
  12.4875211505    7.9998597501    5.1715112896
   8.7543371499    8.0000375700   16.9439151699
  11.2456936501    7.9999849700   16.9439040199
   8.7497510603    7.9999627800    3.0124866998
  11.2503833497    7.9999740800    3.0024847398
